Titanium(III) oxide
1.0
        5.4324998856         0.0000000000         0.0000000000
        2.9786029066         4.5431244459         0.0000000000
        2.9786029066         1.6088453576         4.2487170236
   Ti    O
    4    6
Direct
     0.344639987         0.344639987         0.344639987
     0.655359983         0.655359983         0.655359983
     0.155360013         0.155360013         0.155360013
     0.844640017         0.844640017         0.844640017
     0.562399983         0.937600017         0.250000000
     0.437600017         0.062399998         0.750000000
     0.250000000         0.562399983         0.937600017
     0.750000000         0.437600017         0.062399998
     0.937600017         0.250000000         0.562399983
     0.062399998         0.750000000         0.437600017
