O3 V2                                   
   1.00000000000000     
     7.2765503917255021   -0.0000028268181809    0.0181625854256918
     0.0000050395648515    5.0994506899721657    0.0000025816519624
    -0.6305333946047545    0.0000029744205211    5.5154583784320383
   V    O 
     8    12
Direct
  0.3450842407289740  0.0028742766000026  0.2971255944656609
  0.6548939439392334  0.9971913340975173  0.7028283652643263
  0.1548938257186180  0.0028089631343289  0.7028289563273437
  0.8450836813898368  0.9971258628891903  0.2971261202592649
  0.8450857881568522  0.5028736189206132  0.7971259763005117
  0.1548922028583481  0.4971932061967891  0.2028285855023819
  0.6548922291179922  0.5028087379767445  0.2028277086133729
  0.3450851260153251  0.4971246468763439  0.7971255721992925
  0.4025477152357088  0.8512347816082565  0.6451599764517649
  0.5974605528017269  0.1487127686588380  0.3547912747326956
  0.0974591606987869  0.8512891652362012  0.3547938639180609
  0.9025476274647122  0.1487632766058928  0.6451606525823476
  0.9025473473629919  0.3512326161217622  0.1451603240971419
  0.0974609793748151  0.6487137191350085  0.8547928475753072
  0.5974607351189897  0.3512865975777644  0.8547919409268840
  0.4025469138448560  0.6487671764309787  0.1451600443508706
  0.2500156453359628  0.3193097988550903  0.5000928219674828
  0.7500152142275972  0.6806900108852911  0.5000925206404671
  0.7500140074676059  0.8193104254158523  0.0000936280619735
  0.2500130631410736  0.1806890347775285  0.0000932257628488
 
  0.00000000E+00  0.00000000E+00  0.00000000E+00
  0.00000000E+00  0.00000000E+00  0.00000000E+00
  0.00000000E+00  0.00000000E+00  0.00000000E+00
  0.00000000E+00  0.00000000E+00  0.00000000E+00
  0.00000000E+00  0.00000000E+00  0.00000000E+00
  0.00000000E+00  0.00000000E+00  0.00000000E+00
  0.00000000E+00  0.00000000E+00  0.00000000E+00
  0.00000000E+00  0.00000000E+00  0.00000000E+00
  0.00000000E+00  0.00000000E+00  0.00000000E+00
  0.00000000E+00  0.00000000E+00  0.00000000E+00
  0.00000000E+00  0.00000000E+00  0.00000000E+00
  0.00000000E+00  0.00000000E+00  0.00000000E+00
  0.00000000E+00  0.00000000E+00  0.00000000E+00
  0.00000000E+00  0.00000000E+00  0.00000000E+00
  0.00000000E+00  0.00000000E+00  0.00000000E+00
  0.00000000E+00  0.00000000E+00  0.00000000E+00
  0.00000000E+00  0.00000000E+00  0.00000000E+00
  0.00000000E+00  0.00000000E+00  0.00000000E+00
  0.00000000E+00  0.00000000E+00  0.00000000E+00
  0.00000000E+00  0.00000000E+00  0.00000000E+00
