O3 V2
1.0
        7.2550001144         0.0000000000         0.0000000000
        0.0000000000         5.0019998550         0.0000000000
       -0.6520974645         0.0000000000         5.5095436590
    V    O
    8   12
Direct
     0.343899995         0.001200000         0.299299985
     0.656100035         0.998799980         0.700700045
     0.156100005         0.001200000         0.700700045
     0.843899965         0.998799980         0.299299985
     0.843899965         0.501200020         0.799299955
     0.156100005         0.498800009         0.200700015
     0.656100035         0.501200020         0.200700015
     0.343899995         0.498800009         0.799299955
     0.405999988         0.847000003         0.651000023
     0.593999982         0.152999997         0.348999977
     0.094000012         0.847000003         0.348999977
     0.906000018         0.152999997         0.651000023
     0.906000018         0.347000003         0.151000023
     0.094000012         0.652999997         0.848999977
     0.593999982         0.347000003         0.848999977
     0.405999988         0.652999997         0.151000023
     0.250000000         0.303999990         0.500000000
     0.750000000         0.695999980         0.500000000
     0.750000000         0.804000020         0.000000000
     0.250000000         0.196000010         0.000000000
