O5 V2                                   
   1.00000000000000     
    11.5915160179517134   -0.0000031238537585    0.0000015604847845
    -0.0000009692472787    3.5696410746015608    0.0000004313213836
     0.0000005930605224    0.0000005102727460    4.2991532348915857
   V    O 
     4    10
Direct
  0.1013637317019516  0.2499999036658949  0.8898695136187484
  0.8986359674694526  0.7499999000221109  0.1101307636736166
  0.3986362771193228  0.2499997754186936  0.8898689443300114
  0.6013638324280279  0.7500003313294172  0.1101289368823686
  0.1037223483847640  0.2500003242841018  0.5178959115187922
  0.8962775556715883  0.7499995582050616  0.4821102259771024
  0.3962778783070817  0.2499998224955036  0.5178924410383132
  0.6037219985991058  0.7500003670840272  0.4821052573184019
  0.9317777168605659  0.2499996365592523  0.0051337466613575
  0.0682221723875998  0.7500000483166005  0.9948668952754005
  0.5682223156143422  0.2500001966844962  0.0051323072698111
  0.4317779337878704  0.7500000792812145  0.9948657594297856
  0.2500002874582421  0.2500000095083266  0.9955845458151842
  0.7499999852100956  0.7500000471452921  0.0044147221911075
 
  0.00000000E+00  0.00000000E+00  0.00000000E+00
  0.00000000E+00  0.00000000E+00  0.00000000E+00
  0.00000000E+00  0.00000000E+00  0.00000000E+00
  0.00000000E+00  0.00000000E+00  0.00000000E+00
  0.00000000E+00  0.00000000E+00  0.00000000E+00
  0.00000000E+00  0.00000000E+00  0.00000000E+00
  0.00000000E+00  0.00000000E+00  0.00000000E+00
  0.00000000E+00  0.00000000E+00  0.00000000E+00
  0.00000000E+00  0.00000000E+00  0.00000000E+00
  0.00000000E+00  0.00000000E+00  0.00000000E+00
  0.00000000E+00  0.00000000E+00  0.00000000E+00
  0.00000000E+00  0.00000000E+00  0.00000000E+00
  0.00000000E+00  0.00000000E+00  0.00000000E+00
  0.00000000E+00  0.00000000E+00  0.00000000E+00
