Fe8 O8                                  
   1.00000000000000     
    -4.4191027458762688   -4.2562239373902182    0.0472250973447584
    -4.4113852226564090    0.0591463141245687   -4.2652510287158849
     0.0556450295639935   -4.2556825574106734   -4.2567891324572154
   Fe   O 
     8     8
Direct
 -0.0000098843765801  0.0000372409697114  0.9999201421366172
  0.0000129523045566  0.9999591554165508  0.4999868033450857
  0.0000075781640589  0.4999602839045895  0.9999908394267730
 -0.0000096596314751  0.5000384267629332  0.4999191934264463
  0.4999844840210553 -0.0000125148263500  0.0000742232509372
  0.5000048560817015  0.0000181456231165  0.4999796228831841
  0.5000049000430569  0.5000245814814993  0.9999729401670702
  0.4999894350494220  0.4999810602588149  0.5000591690959685
  0.2702167264218903  0.2304361456436151  0.2494689636387409
  0.2298265324791888  0.2699951433151120  0.7502214555710522
  0.2298494314851605  0.7699894911467673  0.2501530832556350
  0.2702748703362096  0.7304648968430528  0.7494637004487954
  0.7297182832743515  0.2695320906718315  0.2505839470636794
  0.7701635301768524  0.2300096455860074  0.7498434088453881
  0.7701890043422228  0.7300033420006912  0.2497807721904535
  0.7297769598283277  0.7695628652020566  0.7505817352541725
 
  0.00000000E+00  0.00000000E+00  0.00000000E+00
  0.00000000E+00  0.00000000E+00  0.00000000E+00
  0.00000000E+00  0.00000000E+00  0.00000000E+00
  0.00000000E+00  0.00000000E+00  0.00000000E+00
  0.00000000E+00  0.00000000E+00  0.00000000E+00
  0.00000000E+00  0.00000000E+00  0.00000000E+00
  0.00000000E+00  0.00000000E+00  0.00000000E+00
  0.00000000E+00  0.00000000E+00  0.00000000E+00
  0.00000000E+00  0.00000000E+00  0.00000000E+00
  0.00000000E+00  0.00000000E+00  0.00000000E+00
  0.00000000E+00  0.00000000E+00  0.00000000E+00
  0.00000000E+00  0.00000000E+00  0.00000000E+00
  0.00000000E+00  0.00000000E+00  0.00000000E+00
  0.00000000E+00  0.00000000E+00  0.00000000E+00
  0.00000000E+00  0.00000000E+00  0.00000000E+00
  0.00000000E+00  0.00000000E+00  0.00000000E+00
