Fe8 O8
1.0
-4.303000 -4.303000 0.000000
-4.303000 0.000000 -4.303000
0.000000 -4.303000 -4.303000
Fe O
8 8
direct
0.000000 0.000000 0.000000 Fe
0.000000 0.000000 0.500000 Fe
0.000000 0.500000 0.000000 Fe
0.000000 0.500000 0.500000 Fe
0.500000 0.000000 0.000000 Fe
0.500000 0.000000 0.500000 Fe
0.500000 0.500000 0.000000 Fe
0.500000 0.500000 0.500000 Fe
0.250000 0.250000 0.250000 O
0.250000 0.250000 0.750000 O
0.250000 0.750000 0.250000 O
0.250000 0.750000 0.750000 O
0.750000 0.250000 0.250000 O
0.750000 0.250000 0.750000 O
0.750000 0.750000 0.250000 O
0.750000 0.750000 0.750000 O
