ALGO = Normal
EDIFF = 1e-06
#EDIFFG = -0.01
ENCUT = 520
IBRION = -1
ICHARG = 1
ISIF = 2
ISMEAR = 0
ISPIN = 2
ISYM = 0
LASPH = True
LMIXTAU = True
LORBIT = 11
LPLANE = True
LREAL = Auto
LWAVE = False
MAGMOM = 4*2 4*-2 12*0.06
METAGGA = R2SCAN
NCORE = 6
NELM = 200
NELMIN = 6
NSIM = 4
PREC = Accurate
SIGMA = 0.05
NEDOS = 8000
EMIN = -20
EMAX = 20
