Automatically generated mesh
    2524
Reciprocal lattice
0.0 0.0 0.0 1
0.14285714 0.0 0.0 2
0.28571429 0.0 0.0 2
0.42857143 0.0 0.0 2
-0.0 0.1 0.0 2
0.14285714 0.1 -0.0 2
0.85714286 0.1 0.0 2
0.28571429 0.1 -0.0 2
0.71428571 0.1 0.0 2
0.42857143 0.1 -0.0 2
0.57142857 0.1 0.0 2
-0.0 0.2 -0.0 2
0.14285714 0.2 0.0 2
0.85714286 0.2 -0.0 2
0.28571429 0.2 0.0 2
0.71428571 0.2 -0.0 2
0.42857143 0.2 0.0 2
0.57142857 0.2 -0.0 2
-0.0 0.3 0.0 2
0.14285714 0.3 0.0 2
0.85714286 0.3 -0.0 2
0.28571429 0.3 -0.0 2
0.71428571 0.3 0.0 2
0.42857143 0.3 -0.0 2
0.57142857 0.3 0.0 2
-0.0 0.4 -0.0 2
0.14285714 0.4 -0.0 2
0.85714286 0.4 -0.0 2
0.28571429 0.4 0.0 2
0.71428571 0.4 -0.0 2
0.42857143 0.4 0.0 2
0.57142857 0.4 0.0 2
0.0 0.5 0.0 1
0.14285714 0.5 0.0 2
0.28571429 0.5 -0.0 2
0.42857143 0.5 -0.0 2
0.0 -0.0 0.11111111 2
0.14285714 -0.0 0.11111111 2
0.28571429 0.0 0.11111111 2
0.42857143 0.0 0.11111111 2
0.57142857 -0.0 0.11111111 2
0.71428571 0.0 0.11111111 2
0.85714286 -0.0 0.11111111 2
0.0 0.1 0.11111111 2
-0.0 0.1 0.88888889 2
0.14285714 0.1 0.11111111 2
0.85714286 0.1 0.88888889 2
0.28571429 0.1 0.11111111 2
0.71428571 0.1 0.88888889 2
0.42857143 0.1 0.11111111 2
0.57142857 0.1 0.88888889 2
0.57142857 0.1 0.11111111 2
0.42857143 0.1 0.88888889 2
0.71428571 0.1 0.11111111 2
0.28571429 0.1 0.88888889 2
0.85714286 0.1 0.11111111 2
0.14285714 0.1 0.88888889 2
0.0 0.2 0.11111111 2
0.0 0.2 0.88888889 2
0.14285714 0.2 0.11111111 2
0.85714286 0.2 0.88888889 2
0.28571429 0.2 0.11111111 2
0.71428571 0.2 0.88888889 2
0.42857143 0.2 0.11111111 2
0.57142857 0.2 0.88888889 2
0.57142857 0.2 0.11111111 2
0.42857143 0.2 0.88888889 2
0.71428571 0.2 0.11111111 2
0.28571429 0.2 0.88888889 2
0.85714286 0.2 0.11111111 2
0.14285714 0.2 0.88888889 2
0.0 0.3 0.11111111 2
-0.0 0.3 0.88888889 2
0.14285714 0.3 0.11111111 2
0.85714286 0.3 0.88888889 2
0.28571429 0.3 0.11111111 2
0.71428571 0.3 0.88888889 2
0.42857143 0.3 0.11111111 2
0.57142857 0.3 0.88888889 2
0.57142857 0.3 0.11111111 2
0.42857143 0.3 0.88888889 2
0.71428571 0.3 0.11111111 2
0.28571429 0.3 0.88888889 2
0.85714286 0.3 0.11111111 2
0.14285714 0.3 0.88888889 2
0.0 0.4 0.11111111 2
-0.0 0.4 0.88888889 2
0.14285714 0.4 0.11111111 2
0.85714286 0.4 0.88888889 2
0.28571429 0.4 0.11111111 2
0.71428571 0.4 0.88888889 2
0.42857143 0.4 0.11111111 2
0.57142857 0.4 0.88888889 2
0.57142857 0.4 0.11111111 2
0.42857143 0.4 0.88888889 2
0.71428571 0.4 0.11111111 2
0.28571429 0.4 0.88888889 2
0.85714286 0.4 0.11111111 2
0.14285714 0.4 0.88888889 2
0.0 0.5 0.11111111 2
0.14285714 0.5 0.11111111 2
0.28571429 0.5 0.11111111 2
0.42857143 0.5 0.11111111 2
0.57142857 0.5 0.11111111 2
0.71428571 0.5 0.11111111 2
0.85714286 0.5 0.11111111 2
-0.0 -0.0 0.22222222 2
0.14285714 -0.0 0.22222222 2
0.28571429 -0.0 0.22222222 2
0.42857143 0.0 0.22222222 2
0.57142857 -0.0 0.22222222 2
0.71428571 -0.0 0.22222222 2
0.85714286 -0.0 0.22222222 2
0.0 0.1 0.22222222 2
-0.0 0.1 0.77777778 2
0.14285714 0.1 0.22222222 2
0.85714286 0.1 0.77777778 2
0.28571429 0.1 0.22222222 2
0.71428571 0.1 0.77777778 2
0.42857143 0.1 0.22222222 2
0.57142857 0.1 0.77777778 2
0.57142857 0.1 0.22222222 2
0.42857143 0.1 0.77777778 2
0.71428571 0.1 0.22222222 2
0.28571429 0.1 0.77777778 2
0.85714286 0.1 0.22222222 2
0.14285714 0.1 0.77777778 2
0.0 0.2 0.22222222 2
-0.0 0.2 0.77777778 2
0.14285714 0.2 0.22222222 2
0.85714286 0.2 0.77777778 2
0.28571429 0.2 0.22222222 2
0.71428571 0.2 0.77777778 2
0.42857143 0.2 0.22222222 2
0.57142857 0.2 0.77777778 2
0.57142857 0.2 0.22222222 2
0.42857143 0.2 0.77777778 2
0.71428571 0.2 0.22222222 2
0.28571429 0.2 0.77777778 2
0.85714286 0.2 0.22222222 2
0.14285714 0.2 0.77777778 2
0.0 0.3 0.22222222 2
-0.0 0.3 0.77777778 2
0.14285714 0.3 0.22222222 2
0.85714286 0.3 0.77777778 2
0.28571429 0.3 0.22222222 2
0.71428571 0.3 0.77777778 2
0.42857143 0.3 0.22222222 2
0.57142857 0.3 0.77777778 2
0.57142857 0.3 0.22222222 2
0.42857143 0.3 0.77777778 2
0.71428571 0.3 0.22222222 2
0.28571429 0.3 0.77777778 2
0.85714286 0.3 0.22222222 2
0.14285714 0.3 0.77777778 2
-0.0 0.4 0.22222222 2
0.0 0.4 0.77777778 2
0.14285714 0.4 0.22222222 2
0.85714286 0.4 0.77777778 2
0.28571429 0.4 0.22222222 2
0.71428571 0.4 0.77777778 2
0.42857143 0.4 0.22222222 2
0.57142857 0.4 0.77777778 2
0.57142857 0.4 0.22222222 2
0.42857143 0.4 0.77777778 2
0.71428571 0.4 0.22222222 2
0.28571429 0.4 0.77777778 2
0.85714286 0.4 0.22222222 2
0.14285714 0.4 0.77777778 2
0.0 0.5 0.22222222 2
0.14285714 0.5 0.22222222 2
0.28571429 0.5 0.22222222 2
0.42857143 0.5 0.22222222 2
0.57142857 0.5 0.22222222 2
0.71428571 0.5 0.22222222 2
0.85714286 0.5 0.22222222 2
0.0 -0.0 0.33333333 2
0.14285714 0.0 0.33333333 2
0.28571429 -0.0 0.33333333 2
0.42857143 0.0 0.33333333 2
0.57142857 -0.0 0.33333333 2
0.71428571 -0.0 0.33333333 2
0.85714286 -0.0 0.33333333 2
-0.0 0.1 0.33333333 2
-0.0 0.1 0.66666667 2
0.14285714 0.1 0.33333333 2
0.85714286 0.1 0.66666667 2
0.28571429 0.1 0.33333333 2
0.71428571 0.1 0.66666667 2
0.42857143 0.1 0.33333333 2
0.57142857 0.1 0.66666667 2
0.57142857 0.1 0.33333333 2
0.42857143 0.1 0.66666667 2
0.71428571 0.1 0.33333333 2
0.28571429 0.1 0.66666667 2
0.85714286 0.1 0.33333333 2
0.14285714 0.1 0.66666667 2
0.0 0.2 0.33333333 2
-0.0 0.2 0.66666667 2
0.14285714 0.2 0.33333333 2
0.85714286 0.2 0.66666667 2
0.28571429 0.2 0.33333333 2
0.71428571 0.2 0.66666667 2
0.42857143 0.2 0.33333333 2
0.57142857 0.2 0.66666667 2
0.57142857 0.2 0.33333333 2
0.42857143 0.2 0.66666667 2
0.71428571 0.2 0.33333333 2
0.28571429 0.2 0.66666667 2
0.85714286 0.2 0.33333333 2
0.14285714 0.2 0.66666667 2
0.0 0.3 0.33333333 2
0.0 0.3 0.66666667 2
0.14285714 0.3 0.33333333 2
0.85714286 0.3 0.66666667 2
0.28571429 0.3 0.33333333 2
0.71428571 0.3 0.66666667 2
0.42857143 0.3 0.33333333 2
0.57142857 0.3 0.66666667 2
0.57142857 0.3 0.33333333 2
0.42857143 0.3 0.66666667 2
0.71428571 0.3 0.33333333 2
0.28571429 0.3 0.66666667 2
0.85714286 0.3 0.33333333 2
0.14285714 0.3 0.66666667 2
0.0 0.4 0.33333333 2
-0.0 0.4 0.66666667 2
0.14285714 0.4 0.33333333 2
0.85714286 0.4 0.66666667 2
0.28571429 0.4 0.33333333 2
0.71428571 0.4 0.66666667 2
0.42857143 0.4 0.33333333 2
0.57142857 0.4 0.66666667 2
0.57142857 0.4 0.33333333 2
0.42857143 0.4 0.66666667 2
0.71428571 0.4 0.33333333 2
0.28571429 0.4 0.66666667 2
0.85714286 0.4 0.33333333 2
0.14285714 0.4 0.66666667 2
0.0 0.5 0.33333333 2
0.14285714 0.5 0.33333333 2
0.28571429 0.5 0.33333333 2
0.42857143 0.5 0.33333333 2
0.57142857 0.5 0.33333333 2
0.71428571 0.5 0.33333333 2
0.85714286 0.5 0.33333333 2
-0.0 -0.0 0.44444444 2
0.14285714 -0.0 0.44444444 2
0.28571429 -0.0 0.44444444 2
0.42857143 0.0 0.44444444 2
0.57142857 -0.0 0.44444444 2
0.71428571 -0.0 0.44444444 2
0.85714286 -0.0 0.44444444 2
0.0 0.1 0.44444444 2
-0.0 0.1 0.55555556 2
0.14285714 0.1 0.44444444 2
0.85714286 0.1 0.55555556 2
0.28571429 0.1 0.44444444 2
0.71428571 0.1 0.55555556 2
0.42857143 0.1 0.44444444 2
0.57142857 0.1 0.55555556 2
0.57142857 0.1 0.44444444 2
0.42857143 0.1 0.55555556 2
0.71428571 0.1 0.44444444 2
0.28571429 0.1 0.55555556 2
0.85714286 0.1 0.44444444 2
0.14285714 0.1 0.55555556 2
0.0 0.2 0.44444444 2
0.0 0.2 0.55555556 2
0.14285714 0.2 0.44444444 2
0.85714286 0.2 0.55555556 2
0.28571429 0.2 0.44444444 2
0.71428571 0.2 0.55555556 2
0.42857143 0.2 0.44444444 2
0.57142857 0.2 0.55555556 2
0.57142857 0.2 0.44444444 2
0.42857143 0.2 0.55555556 2
0.71428571 0.2 0.44444444 2
0.28571429 0.2 0.55555556 2
0.85714286 0.2 0.44444444 2
0.14285714 0.2 0.55555556 2
0.0 0.3 0.44444444 2
-0.0 0.3 0.55555556 2
0.14285714 0.3 0.44444444 2
0.85714286 0.3 0.55555556 2
0.28571429 0.3 0.44444444 2
0.71428571 0.3 0.55555556 2
0.42857143 0.3 0.44444444 2
0.57142857 0.3 0.55555556 2
0.57142857 0.3 0.44444444 2
0.42857143 0.3 0.55555556 2
0.71428571 0.3 0.44444444 2
0.28571429 0.3 0.55555556 2
0.85714286 0.3 0.44444444 2
0.14285714 0.3 0.55555556 2
0.0 0.4 0.44444444 2
-0.0 0.4 0.55555556 2
0.14285714 0.4 0.44444444 2
0.85714286 0.4 0.55555556 2
0.28571429 0.4 0.44444444 2
0.71428571 0.4 0.55555556 2
0.42857143 0.4 0.44444444 2
0.57142857 0.4 0.55555556 2
0.57142857 0.4 0.44444444 2
0.42857143 0.4 0.55555556 2
0.71428571 0.4 0.44444444 2
0.28571429 0.4 0.55555556 2
0.85714286 0.4 0.44444444 2
0.14285714 0.4 0.55555556 2
0.0 0.5 0.44444444 2
0.14285714 0.5 0.44444444 2
0.28571429 0.5 0.44444444 2
0.42857143 0.5 0.44444444 2
0.57142857 0.5 0.44444444 2
0.71428571 0.5 0.44444444 2
0.85714286 0.5 0.44444444 2
0.07142857 0.0 -0.0 0
0.21428571 0.0 -0.0 0
0.35714286 0.0 0.0 0
0.5 0.0 0.0 0
0.0 0.05 0.0 0
0.07142857 0.05 0.0 0
0.92857143 0.05 -0.0 0
0.14285714 0.05 0.0 0
0.85714286 0.05 -0.0 0
0.21428571 0.05 -0.0 0
0.78571429 0.05 -0.0 0
0.28571429 0.05 -0.0 0
0.71428571 0.05 -0.0 0
0.35714286 0.05 -0.0 0
0.64285714 0.05 -0.0 0
0.42857143 0.05 -0.0 0
0.57142857 0.05 0.0 0
0.5 0.05 0.0 0
0.07142857 0.1 -0.0 0
0.92857143 0.1 0.0 0
0.21428571 0.1 0.0 0
0.78571429 0.1 0.0 0
0.35714286 0.1 0.0 0
0.64285714 0.1 0.0 0
0.5 0.1 -0.0 0
-0.0 0.15 0.0 0
0.07142857 0.15 0.0 0
0.92857143 0.15 0.0 0
0.14285714 0.15 -0.0 0
0.85714286 0.15 0.0 0
0.21428571 0.15 -0.0 0
0.78571429 0.15 0.0 0
0.28571429 0.15 -0.0 0
0.71428571 0.15 0.0 0
0.35714286 0.15 0.0 0
0.64285714 0.15 -0.0 0
0.42857143 0.15 0.0 0
0.57142857 0.15 -0.0 0
0.5 0.15 0.0 0
0.07142857 0.2 0.0 0
0.92857143 0.2 -0.0 0
0.21428571 0.2 0.0 0
0.78571429 0.2 -0.0 0
0.35714286 0.2 -0.0 0
0.64285714 0.2 0.0 0
0.5 0.2 -0.0 0
0.0 0.25 -0.0 0
0.07142857 0.25 -0.0 0
0.92857143 0.25 -0.0 0
0.14285714 0.25 -0.0 0
0.85714286 0.25 0.0 0
0.21428571 0.25 0.0 0
0.78571429 0.25 -0.0 0
0.28571429 0.25 0.0 0
0.71428571 0.25 -0.0 0
0.35714286 0.25 0.0 0
0.64285714 0.25 -0.0 0
0.42857143 0.25 0.0 0
0.57142857 0.25 -0.0 0
0.5 0.25 -0.0 0
0.07142857 0.3 0.0 0
0.92857143 0.3 0.0 0
0.21428571 0.3 -0.0 0
0.78571429 0.3 0.0 0
0.35714286 0.3 -0.0 0
0.64285714 0.3 0.0 0
0.5 0.3 0.0 0
-0.0 0.35 -0.0 0
0.07142857 0.35 0.0 0
0.92857143 0.35 -0.0 0
0.14285714 0.35 0.0 0
0.85714286 0.35 -0.0 0
0.21428571 0.35 0.0 0
0.78571429 0.35 -0.0 0
0.28571429 0.35 0.0 0
0.71428571 0.35 0.0 0
0.35714286 0.35 -0.0 0
0.64285714 0.35 0.0 0
0.42857143 0.35 -0.0 0
0.57142857 0.35 0.0 0
0.5 0.35 -0.0 0
0.07142857 0.4 -0.0 0
0.92857143 0.4 0.0 0
0.21428571 0.4 -0.0 0
0.78571429 0.4 0.0 0
0.35714286 0.4 0.0 0
0.64285714 0.4 -0.0 0
0.5 0.4 0.0 0
-0.0 0.45 0.0 0
0.07142857 0.45 0.0 0
0.92857143 0.45 -0.0 0
0.14285714 0.45 0.0 0
0.85714286 0.45 -0.0 0
0.21428571 0.45 -0.0 0
0.78571429 0.45 -0.0 0
0.28571429 0.45 -0.0 0
0.71428571 0.45 -0.0 0
0.35714286 0.45 -0.0 0
0.64285714 0.45 -0.0 0
0.42857143 0.45 -0.0 0
0.57142857 0.45 0.0 0
0.5 0.45 0.0 0
0.07142857 0.5 -0.0 0
0.21428571 0.5 0.0 0
0.35714286 0.5 0.0 0
0.5 0.5 -0.0 0
0.0 0.0 0.05555556 0
0.07142857 0.0 0.05555556 0
0.14285714 0.0 0.05555556 0
0.21428571 0.0 0.05555556 0
0.28571429 0.0 0.05555556 0
0.35714286 0.0 0.05555556 0
0.42857143 0.0 0.05555556 0
0.5 0.0 0.05555556 0
0.57142857 0.0 0.05555556 0
0.64285714 0.0 0.05555556 0
0.71428571 0.0 0.05555556 0
0.78571429 0.0 0.05555556 0
0.85714286 0.0 0.05555556 0
0.92857143 0.0 0.05555556 0
-0.0 0.05 0.05555556 0
0.0 0.05 0.94444444 0
0.07142857 0.05 0.05555556 0
0.92857143 0.05 0.94444444 0
0.14285714 0.05 0.05555556 0
0.85714286 0.05 0.94444444 0
0.21428571 0.05 0.05555556 0
0.78571429 0.05 0.94444444 0
0.28571429 0.05 0.05555556 0
0.71428571 0.05 0.94444444 0
0.35714286 0.05 0.05555556 0
0.64285714 0.05 0.94444444 0
0.42857143 0.05 0.05555556 0
0.57142857 0.05 0.94444444 0
0.5 0.05 0.05555556 0
0.5 0.05 0.94444444 0
0.57142857 0.05 0.05555556 0
0.42857143 0.05 0.94444444 0
0.64285714 0.05 0.05555556 0
0.35714286 0.05 0.94444444 0
0.71428571 0.05 0.05555556 0
0.28571429 0.05 0.94444444 0
0.78571429 0.05 0.05555556 0
0.21428571 0.05 0.94444444 0
0.85714286 0.05 0.05555556 0
0.14285714 0.05 0.94444444 0
0.92857143 0.05 0.05555556 0
0.07142857 0.05 0.94444444 0
-0.0 0.1 0.05555556 0
0.0 0.1 0.94444444 0
0.07142857 0.1 0.05555556 0
0.92857143 0.1 0.94444444 0
0.14285714 0.1 0.05555556 0
0.85714286 0.1 0.94444444 0
0.21428571 0.1 0.05555556 0
0.78571429 0.1 0.94444444 0
0.28571429 0.1 0.05555556 0
0.71428571 0.1 0.94444444 0
0.35714286 0.1 0.05555556 0
0.64285714 0.1 0.94444444 0
0.42857143 0.1 0.05555556 0
0.57142857 0.1 0.94444444 0
0.5 0.1 0.05555556 0
0.5 0.1 0.94444444 0
0.57142857 0.1 0.05555556 0
0.42857143 0.1 0.94444444 0
0.64285714 0.1 0.05555556 0
0.35714286 0.1 0.94444444 0
0.71428571 0.1 0.05555556 0
0.28571429 0.1 0.94444444 0
0.78571429 0.1 0.05555556 0
0.21428571 0.1 0.94444444 0
0.85714286 0.1 0.05555556 0
0.14285714 0.1 0.94444444 0
0.92857143 0.1 0.05555556 0
0.07142857 0.1 0.94444444 0
-0.0 0.15 0.05555556 0
-0.0 0.15 0.94444444 0
0.07142857 0.15 0.05555556 0
0.92857143 0.15 0.94444444 0
0.14285714 0.15 0.05555556 0
0.85714286 0.15 0.94444444 0
0.21428571 0.15 0.05555556 0
0.78571429 0.15 0.94444444 0
0.28571429 0.15 0.05555556 0
0.71428571 0.15 0.94444444 0
0.35714286 0.15 0.05555556 0
0.64285714 0.15 0.94444444 0
0.42857143 0.15 0.05555556 0
0.57142857 0.15 0.94444444 0
0.5 0.15 0.05555556 0
0.5 0.15 0.94444444 0
0.57142857 0.15 0.05555556 0
0.42857143 0.15 0.94444444 0
0.64285714 0.15 0.05555556 0
0.35714286 0.15 0.94444444 0
0.71428571 0.15 0.05555556 0
0.28571429 0.15 0.94444444 0
0.78571429 0.15 0.05555556 0
0.21428571 0.15 0.94444444 0
0.85714286 0.15 0.05555556 0
0.14285714 0.15 0.94444444 0
0.92857143 0.15 0.05555556 0
0.07142857 0.15 0.94444444 0
0.0 0.2 0.05555556 0
-0.0 0.2 0.94444444 0
0.07142857 0.2 0.05555556 0
0.92857143 0.2 0.94444444 0
0.14285714 0.2 0.05555556 0
0.85714286 0.2 0.94444444 0
0.21428571 0.2 0.05555556 0
0.78571429 0.2 0.94444444 0
0.28571429 0.2 0.05555556 0
0.71428571 0.2 0.94444444 0
0.35714286 0.2 0.05555556 0
0.64285714 0.2 0.94444444 0
0.42857143 0.2 0.05555556 0
0.57142857 0.2 0.94444444 0
0.5 0.2 0.05555556 0
0.5 0.2 0.94444444 0
0.57142857 0.2 0.05555556 0
0.42857143 0.2 0.94444444 0
0.64285714 0.2 0.05555556 0
0.35714286 0.2 0.94444444 0
0.71428571 0.2 0.05555556 0
0.28571429 0.2 0.94444444 0
0.78571429 0.2 0.05555556 0
0.21428571 0.2 0.94444444 0
0.85714286 0.2 0.05555556 0
0.14285714 0.2 0.94444444 0
0.92857143 0.2 0.05555556 0
0.07142857 0.2 0.94444444 0
-0.0 0.25 0.05555556 0
-0.0 0.25 0.94444444 0
0.07142857 0.25 0.05555556 0
0.92857143 0.25 0.94444444 0
0.14285714 0.25 0.05555556 0
0.85714286 0.25 0.94444444 0
0.21428571 0.25 0.05555556 0
0.78571429 0.25 0.94444444 0
0.28571429 0.25 0.05555556 0
0.71428571 0.25 0.94444444 0
0.35714286 0.25 0.05555556 0
0.64285714 0.25 0.94444444 0
0.42857143 0.25 0.05555556 0
0.57142857 0.25 0.94444444 0
0.5 0.25 0.05555556 0
0.5 0.25 0.94444444 0
0.57142857 0.25 0.05555556 0
0.42857143 0.25 0.94444444 0
0.64285714 0.25 0.05555556 0
0.35714286 0.25 0.94444444 0
0.71428571 0.25 0.05555556 0
0.28571429 0.25 0.94444444 0
0.78571429 0.25 0.05555556 0
0.21428571 0.25 0.94444444 0
0.85714286 0.25 0.05555556 0
0.14285714 0.25 0.94444444 0
0.92857143 0.25 0.05555556 0
0.07142857 0.25 0.94444444 0
0.0 0.3 0.05555556 0
-0.0 0.3 0.94444444 0
0.07142857 0.3 0.05555556 0
0.92857143 0.3 0.94444444 0
0.14285714 0.3 0.05555556 0
0.85714286 0.3 0.94444444 0
0.21428571 0.3 0.05555556 0
0.78571429 0.3 0.94444444 0
0.28571429 0.3 0.05555556 0
0.71428571 0.3 0.94444444 0
0.35714286 0.3 0.05555556 0
0.64285714 0.3 0.94444444 0
0.42857143 0.3 0.05555556 0
0.57142857 0.3 0.94444444 0
0.5 0.3 0.05555556 0
0.5 0.3 0.94444444 0
0.57142857 0.3 0.05555556 0
0.42857143 0.3 0.94444444 0
0.64285714 0.3 0.05555556 0
0.35714286 0.3 0.94444444 0
0.71428571 0.3 0.05555556 0
0.28571429 0.3 0.94444444 0
0.78571429 0.3 0.05555556 0
0.21428571 0.3 0.94444444 0
0.85714286 0.3 0.05555556 0
0.14285714 0.3 0.94444444 0
0.92857143 0.3 0.05555556 0
0.07142857 0.3 0.94444444 0
-0.0 0.35 0.05555556 0
-0.0 0.35 0.94444444 0
0.07142857 0.35 0.05555556 0
0.92857143 0.35 0.94444444 0
0.14285714 0.35 0.05555556 0
0.85714286 0.35 0.94444444 0
0.21428571 0.35 0.05555556 0
0.78571429 0.35 0.94444444 0
0.28571429 0.35 0.05555556 0
0.71428571 0.35 0.94444444 0
0.35714286 0.35 0.05555556 0
0.64285714 0.35 0.94444444 0
0.42857143 0.35 0.05555556 0
0.57142857 0.35 0.94444444 0
0.5 0.35 0.05555556 0
0.5 0.35 0.94444444 0
0.57142857 0.35 0.05555556 0
0.42857143 0.35 0.94444444 0
0.64285714 0.35 0.05555556 0
0.35714286 0.35 0.94444444 0
0.71428571 0.35 0.05555556 0
0.28571429 0.35 0.94444444 0
0.78571429 0.35 0.05555556 0
0.21428571 0.35 0.94444444 0
0.85714286 0.35 0.05555556 0
0.14285714 0.35 0.94444444 0
0.92857143 0.35 0.05555556 0
0.07142857 0.35 0.94444444 0
0.0 0.4 0.05555556 0
0.0 0.4 0.94444444 0
0.07142857 0.4 0.05555556 0
0.92857143 0.4 0.94444444 0
0.14285714 0.4 0.05555556 0
0.85714286 0.4 0.94444444 0
0.21428571 0.4 0.05555556 0
0.78571429 0.4 0.94444444 0
0.28571429 0.4 0.05555556 0
0.71428571 0.4 0.94444444 0
0.35714286 0.4 0.05555556 0
0.64285714 0.4 0.94444444 0
0.42857143 0.4 0.05555556 0
0.57142857 0.4 0.94444444 0
0.5 0.4 0.05555556 0
0.5 0.4 0.94444444 0
0.57142857 0.4 0.05555556 0
0.42857143 0.4 0.94444444 0
0.64285714 0.4 0.05555556 0
0.35714286 0.4 0.94444444 0
0.71428571 0.4 0.05555556 0
0.28571429 0.4 0.94444444 0
0.78571429 0.4 0.05555556 0
0.21428571 0.4 0.94444444 0
0.85714286 0.4 0.05555556 0
0.14285714 0.4 0.94444444 0
0.92857143 0.4 0.05555556 0
0.07142857 0.4 0.94444444 0
0.0 0.45 0.05555556 0
0.0 0.45 0.94444444 0
0.07142857 0.45 0.05555556 0
0.92857143 0.45 0.94444444 0
0.14285714 0.45 0.05555556 0
0.85714286 0.45 0.94444444 0
0.21428571 0.45 0.05555556 0
0.78571429 0.45 0.94444444 0
0.28571429 0.45 0.05555556 0
0.71428571 0.45 0.94444444 0
0.35714286 0.45 0.05555556 0
0.64285714 0.45 0.94444444 0
0.42857143 0.45 0.05555556 0
0.57142857 0.45 0.94444444 0
0.5 0.45 0.05555556 0
0.5 0.45 0.94444444 0
0.57142857 0.45 0.05555556 0
0.42857143 0.45 0.94444444 0
0.64285714 0.45 0.05555556 0
0.35714286 0.45 0.94444444 0
0.71428571 0.45 0.05555556 0
0.28571429 0.45 0.94444444 0
0.78571429 0.45 0.05555556 0
0.21428571 0.45 0.94444444 0
0.85714286 0.45 0.05555556 0
0.14285714 0.45 0.94444444 0
0.92857143 0.45 0.05555556 0
0.07142857 0.45 0.94444444 0
0.0 0.5 0.05555556 0
0.07142857 0.5 0.05555556 0
0.14285714 0.5 0.05555556 0
0.21428571 0.5 0.05555556 0
0.28571429 0.5 0.05555556 0
0.35714286 0.5 0.05555556 0
0.42857143 0.5 0.05555556 0
0.5 0.5 0.05555556 0
0.57142857 0.5 0.05555556 0
0.64285714 0.5 0.05555556 0
0.71428571 0.5 0.05555556 0
0.78571429 0.5 0.05555556 0
0.85714286 0.5 0.05555556 0
0.92857143 0.5 0.05555556 0
0.07142857 0.0 0.11111111 0
0.21428571 0.0 0.11111111 0
0.35714286 0.0 0.11111111 0
0.5 0.0 0.11111111 0
0.64285714 0.0 0.11111111 0
0.78571429 0.0 0.11111111 0
0.92857143 0.0 0.11111111 0
-0.0 0.05 0.11111111 0
-0.0 0.05 0.88888889 0
0.07142857 0.05 0.11111111 0
0.92857143 0.05 0.88888889 0
0.14285714 0.05 0.11111111 0
0.85714286 0.05 0.88888889 0
0.21428571 0.05 0.11111111 0
0.78571429 0.05 0.88888889 0
0.28571429 0.05 0.11111111 0
0.71428571 0.05 0.88888889 0
0.35714286 0.05 0.11111111 0
0.64285714 0.05 0.88888889 0
0.42857143 0.05 0.11111111 0
0.57142857 0.05 0.88888889 0
0.5 0.05 0.11111111 0
0.5 0.05 0.88888889 0
0.57142857 0.05 0.11111111 0
0.42857143 0.05 0.88888889 0
0.64285714 0.05 0.11111111 0
0.35714286 0.05 0.88888889 0
0.71428571 0.05 0.11111111 0
0.28571429 0.05 0.88888889 0
0.78571429 0.05 0.11111111 0
0.21428571 0.05 0.88888889 0
0.85714286 0.05 0.11111111 0
0.14285714 0.05 0.88888889 0
0.92857143 0.05 0.11111111 0
0.07142857 0.05 0.88888889 0
0.07142857 0.1 0.11111111 0
0.92857143 0.1 0.88888889 0
0.21428571 0.1 0.11111111 0
0.78571429 0.1 0.88888889 0
0.35714286 0.1 0.11111111 0
0.64285714 0.1 0.88888889 0
0.5 0.1 0.11111111 0
0.5 0.1 0.88888889 0
0.64285714 0.1 0.11111111 0
0.35714286 0.1 0.88888889 0
0.78571429 0.1 0.11111111 0
0.21428571 0.1 0.88888889 0
0.92857143 0.1 0.11111111 0
0.07142857 0.1 0.88888889 0
0.0 0.15 0.11111111 0
-0.0 0.15 0.88888889 0
0.07142857 0.15 0.11111111 0
0.92857143 0.15 0.88888889 0
0.14285714 0.15 0.11111111 0
0.85714286 0.15 0.88888889 0
0.21428571 0.15 0.11111111 0
0.78571429 0.15 0.88888889 0
0.28571429 0.15 0.11111111 0
0.71428571 0.15 0.88888889 0
0.35714286 0.15 0.11111111 0
0.64285714 0.15 0.88888889 0
0.42857143 0.15 0.11111111 0
0.57142857 0.15 0.88888889 0
0.5 0.15 0.11111111 0
0.5 0.15 0.88888889 0
0.57142857 0.15 0.11111111 0
0.42857143 0.15 0.88888889 0
0.64285714 0.15 0.11111111 0
0.35714286 0.15 0.88888889 0
0.71428571 0.15 0.11111111 0
0.28571429 0.15 0.88888889 0
0.78571429 0.15 0.11111111 0
0.21428571 0.15 0.88888889 0
0.85714286 0.15 0.11111111 0
0.14285714 0.15 0.88888889 0
0.92857143 0.15 0.11111111 0
0.07142857 0.15 0.88888889 0
0.07142857 0.2 0.11111111 0
0.92857143 0.2 0.88888889 0
0.21428571 0.2 0.11111111 0
0.78571429 0.2 0.88888889 0
0.35714286 0.2 0.11111111 0
0.64285714 0.2 0.88888889 0
0.5 0.2 0.11111111 0
0.5 0.2 0.88888889 0
0.64285714 0.2 0.11111111 0
0.35714286 0.2 0.88888889 0
0.78571429 0.2 0.11111111 0
0.21428571 0.2 0.88888889 0
0.92857143 0.2 0.11111111 0
0.07142857 0.2 0.88888889 0
0.0 0.25 0.11111111 0
-0.0 0.25 0.88888889 0
0.07142857 0.25 0.11111111 0
0.92857143 0.25 0.88888889 0
0.14285714 0.25 0.11111111 0
0.85714286 0.25 0.88888889 0
0.21428571 0.25 0.11111111 0
0.78571429 0.25 0.88888889 0
0.28571429 0.25 0.11111111 0
0.71428571 0.25 0.88888889 0
0.35714286 0.25 0.11111111 0
0.64285714 0.25 0.88888889 0
0.42857143 0.25 0.11111111 0
0.57142857 0.25 0.88888889 0
0.5 0.25 0.11111111 0
0.5 0.25 0.88888889 0
0.57142857 0.25 0.11111111 0
0.42857143 0.25 0.88888889 0
0.64285714 0.25 0.11111111 0
0.35714286 0.25 0.88888889 0
0.71428571 0.25 0.11111111 0
0.28571429 0.25 0.88888889 0
0.78571429 0.25 0.11111111 0
0.21428571 0.25 0.88888889 0
0.85714286 0.25 0.11111111 0
0.14285714 0.25 0.88888889 0
0.92857143 0.25 0.11111111 0
0.07142857 0.25 0.88888889 0
0.07142857 0.3 0.11111111 0
0.92857143 0.3 0.88888889 0
0.21428571 0.3 0.11111111 0
0.78571429 0.3 0.88888889 0
0.35714286 0.3 0.11111111 0
0.64285714 0.3 0.88888889 0
0.5 0.3 0.11111111 0
0.5 0.3 0.88888889 0
0.64285714 0.3 0.11111111 0
0.35714286 0.3 0.88888889 0
0.78571429 0.3 0.11111111 0
0.21428571 0.3 0.88888889 0
0.92857143 0.3 0.11111111 0
0.07142857 0.3 0.88888889 0
-0.0 0.35 0.11111111 0
0.0 0.35 0.88888889 0
0.07142857 0.35 0.11111111 0
0.92857143 0.35 0.88888889 0
0.14285714 0.35 0.11111111 0
0.85714286 0.35 0.88888889 0
0.21428571 0.35 0.11111111 0
0.78571429 0.35 0.88888889 0
0.28571429 0.35 0.11111111 0
0.71428571 0.35 0.88888889 0
0.35714286 0.35 0.11111111 0
0.64285714 0.35 0.88888889 0
0.42857143 0.35 0.11111111 0
0.57142857 0.35 0.88888889 0
0.5 0.35 0.11111111 0
0.5 0.35 0.88888889 0
0.57142857 0.35 0.11111111 0
0.42857143 0.35 0.88888889 0
0.64285714 0.35 0.11111111 0
0.35714286 0.35 0.88888889 0
0.71428571 0.35 0.11111111 0
0.28571429 0.35 0.88888889 0
0.78571429 0.35 0.11111111 0
0.21428571 0.35 0.88888889 0
0.85714286 0.35 0.11111111 0
0.14285714 0.35 0.88888889 0
0.92857143 0.35 0.11111111 0
0.07142857 0.35 0.88888889 0
0.07142857 0.4 0.11111111 0
0.92857143 0.4 0.88888889 0
0.21428571 0.4 0.11111111 0
0.78571429 0.4 0.88888889 0
0.35714286 0.4 0.11111111 0
0.64285714 0.4 0.88888889 0
0.5 0.4 0.11111111 0
0.5 0.4 0.88888889 0
0.64285714 0.4 0.11111111 0
0.35714286 0.4 0.88888889 0
0.78571429 0.4 0.11111111 0
0.21428571 0.4 0.88888889 0
0.92857143 0.4 0.11111111 0
0.07142857 0.4 0.88888889 0
0.0 0.45 0.11111111 0
0.0 0.45 0.88888889 0
0.07142857 0.45 0.11111111 0
0.92857143 0.45 0.88888889 0
0.14285714 0.45 0.11111111 0
0.85714286 0.45 0.88888889 0
0.21428571 0.45 0.11111111 0
0.78571429 0.45 0.88888889 0
0.28571429 0.45 0.11111111 0
0.71428571 0.45 0.88888889 0
0.35714286 0.45 0.11111111 0
0.64285714 0.45 0.88888889 0
0.42857143 0.45 0.11111111 0
0.57142857 0.45 0.88888889 0
0.5 0.45 0.11111111 0
0.5 0.45 0.88888889 0
0.57142857 0.45 0.11111111 0
0.42857143 0.45 0.88888889 0
0.64285714 0.45 0.11111111 0
0.35714286 0.45 0.88888889 0
0.71428571 0.45 0.11111111 0
0.28571429 0.45 0.88888889 0
0.78571429 0.45 0.11111111 0
0.21428571 0.45 0.88888889 0
0.85714286 0.45 0.11111111 0
0.14285714 0.45 0.88888889 0
0.92857143 0.45 0.11111111 0
0.07142857 0.45 0.88888889 0
0.07142857 0.5 0.11111111 0
0.21428571 0.5 0.11111111 0
0.35714286 0.5 0.11111111 0
0.5 0.5 0.11111111 0
0.64285714 0.5 0.11111111 0
0.78571429 0.5 0.11111111 0
0.92857143 0.5 0.11111111 0
0.0 0.0 0.16666667 0
0.07142857 0.0 0.16666667 0
0.14285714 0.0 0.16666667 0
0.21428571 0.0 0.16666667 0
0.28571429 0.0 0.16666667 0
0.35714286 0.0 0.16666667 0
0.42857143 0.0 0.16666667 0
0.5 0.0 0.16666667 0
0.57142857 0.0 0.16666667 0
0.64285714 0.0 0.16666667 0
0.71428571 0.0 0.16666667 0
0.78571429 0.0 0.16666667 0
0.85714286 0.0 0.16666667 0
0.92857143 0.0 0.16666667 0
-0.0 0.05 0.16666667 0
-0.0 0.05 0.83333333 0
0.07142857 0.05 0.16666667 0
0.92857143 0.05 0.83333333 0
0.14285714 0.05 0.16666667 0
0.85714286 0.05 0.83333333 0
0.21428571 0.05 0.16666667 0
0.78571429 0.05 0.83333333 0
0.28571429 0.05 0.16666667 0
0.71428571 0.05 0.83333333 0
0.35714286 0.05 0.16666667 0
0.64285714 0.05 0.83333333 0
0.42857143 0.05 0.16666667 0
0.57142857 0.05 0.83333333 0
0.5 0.05 0.16666667 0
0.5 0.05 0.83333333 0
0.57142857 0.05 0.16666667 0
0.42857143 0.05 0.83333333 0
0.64285714 0.05 0.16666667 0
0.35714286 0.05 0.83333333 0
0.71428571 0.05 0.16666667 0
0.28571429 0.05 0.83333333 0
0.78571429 0.05 0.16666667 0
0.21428571 0.05 0.83333333 0
0.85714286 0.05 0.16666667 0
0.14285714 0.05 0.83333333 0
0.92857143 0.05 0.16666667 0
0.07142857 0.05 0.83333333 0
-0.0 0.1 0.16666667 0
-0.0 0.1 0.83333333 0
0.07142857 0.1 0.16666667 0
0.92857143 0.1 0.83333333 0
0.14285714 0.1 0.16666667 0
0.85714286 0.1 0.83333333 0
0.21428571 0.1 0.16666667 0
0.78571429 0.1 0.83333333 0
0.28571429 0.1 0.16666667 0
0.71428571 0.1 0.83333333 0
0.35714286 0.1 0.16666667 0
0.64285714 0.1 0.83333333 0
0.42857143 0.1 0.16666667 0
0.57142857 0.1 0.83333333 0
0.5 0.1 0.16666667 0
0.5 0.1 0.83333333 0
0.57142857 0.1 0.16666667 0
0.42857143 0.1 0.83333333 0
0.64285714 0.1 0.16666667 0
0.35714286 0.1 0.83333333 0
0.71428571 0.1 0.16666667 0
0.28571429 0.1 0.83333333 0
0.78571429 0.1 0.16666667 0
0.21428571 0.1 0.83333333 0
0.85714286 0.1 0.16666667 0
0.14285714 0.1 0.83333333 0
0.92857143 0.1 0.16666667 0
0.07142857 0.1 0.83333333 0
0.0 0.15 0.16666667 0
-0.0 0.15 0.83333333 0
0.07142857 0.15 0.16666667 0
0.92857143 0.15 0.83333333 0
0.14285714 0.15 0.16666667 0
0.85714286 0.15 0.83333333 0
0.21428571 0.15 0.16666667 0
0.78571429 0.15 0.83333333 0
0.28571429 0.15 0.16666667 0
0.71428571 0.15 0.83333333 0
0.35714286 0.15 0.16666667 0
0.64285714 0.15 0.83333333 0
0.42857143 0.15 0.16666667 0
0.57142857 0.15 0.83333333 0
0.5 0.15 0.16666667 0
0.5 0.15 0.83333333 0
0.57142857 0.15 0.16666667 0
0.42857143 0.15 0.83333333 0
0.64285714 0.15 0.16666667 0
0.35714286 0.15 0.83333333 0
0.71428571 0.15 0.16666667 0
0.28571429 0.15 0.83333333 0
0.78571429 0.15 0.16666667 0
0.21428571 0.15 0.83333333 0
0.85714286 0.15 0.16666667 0
0.14285714 0.15 0.83333333 0
0.92857143 0.15 0.16666667 0
0.07142857 0.15 0.83333333 0
-0.0 0.2 0.16666667 0
-0.0 0.2 0.83333333 0
0.07142857 0.2 0.16666667 0
0.92857143 0.2 0.83333333 0
0.14285714 0.2 0.16666667 0
0.85714286 0.2 0.83333333 0
0.21428571 0.2 0.16666667 0
0.78571429 0.2 0.83333333 0
0.28571429 0.2 0.16666667 0
0.71428571 0.2 0.83333333 0
0.35714286 0.2 0.16666667 0
0.64285714 0.2 0.83333333 0
0.42857143 0.2 0.16666667 0
0.57142857 0.2 0.83333333 0
0.5 0.2 0.16666667 0
0.5 0.2 0.83333333 0
0.57142857 0.2 0.16666667 0
0.42857143 0.2 0.83333333 0
0.64285714 0.2 0.16666667 0
0.35714286 0.2 0.83333333 0
0.71428571 0.2 0.16666667 0
0.28571429 0.2 0.83333333 0
0.78571429 0.2 0.16666667 0
0.21428571 0.2 0.83333333 0
0.85714286 0.2 0.16666667 0
0.14285714 0.2 0.83333333 0
0.92857143 0.2 0.16666667 0
0.07142857 0.2 0.83333333 0
-0.0 0.25 0.16666667 0
0.0 0.25 0.83333333 0
0.07142857 0.25 0.16666667 0
0.92857143 0.25 0.83333333 0
0.14285714 0.25 0.16666667 0
0.85714286 0.25 0.83333333 0
0.21428571 0.25 0.16666667 0
0.78571429 0.25 0.83333333 0
0.28571429 0.25 0.16666667 0
0.71428571 0.25 0.83333333 0
0.35714286 0.25 0.16666667 0
0.64285714 0.25 0.83333333 0
0.42857143 0.25 0.16666667 0
0.57142857 0.25 0.83333333 0
0.5 0.25 0.16666667 0
0.5 0.25 0.83333333 0
0.57142857 0.25 0.16666667 0
0.42857143 0.25 0.83333333 0
0.64285714 0.25 0.16666667 0
0.35714286 0.25 0.83333333 0
0.71428571 0.25 0.16666667 0
0.28571429 0.25 0.83333333 0
0.78571429 0.25 0.16666667 0
0.21428571 0.25 0.83333333 0
0.85714286 0.25 0.16666667 0
0.14285714 0.25 0.83333333 0
0.92857143 0.25 0.16666667 0
0.07142857 0.25 0.83333333 0
-0.0 0.3 0.16666667 0
0.0 0.3 0.83333333 0
0.07142857 0.3 0.16666667 0
0.92857143 0.3 0.83333333 0
0.14285714 0.3 0.16666667 0
0.85714286 0.3 0.83333333 0
0.21428571 0.3 0.16666667 0
0.78571429 0.3 0.83333333 0
0.28571429 0.3 0.16666667 0
0.71428571 0.3 0.83333333 0
0.35714286 0.3 0.16666667 0
0.64285714 0.3 0.83333333 0
0.42857143 0.3 0.16666667 0
0.57142857 0.3 0.83333333 0
0.5 0.3 0.16666667 0
0.5 0.3 0.83333333 0
0.57142857 0.3 0.16666667 0
0.42857143 0.3 0.83333333 0
0.64285714 0.3 0.16666667 0
0.35714286 0.3 0.83333333 0
0.71428571 0.3 0.16666667 0
0.28571429 0.3 0.83333333 0
0.78571429 0.3 0.16666667 0
0.21428571 0.3 0.83333333 0
0.85714286 0.3 0.16666667 0
0.14285714 0.3 0.83333333 0
0.92857143 0.3 0.16666667 0
0.07142857 0.3 0.83333333 0
0.0 0.35 0.16666667 0
-0.0 0.35 0.83333333 0
0.07142857 0.35 0.16666667 0
0.92857143 0.35 0.83333333 0
0.14285714 0.35 0.16666667 0
0.85714286 0.35 0.83333333 0
0.21428571 0.35 0.16666667 0
0.78571429 0.35 0.83333333 0
0.28571429 0.35 0.16666667 0
0.71428571 0.35 0.83333333 0
0.35714286 0.35 0.16666667 0
0.64285714 0.35 0.83333333 0
0.42857143 0.35 0.16666667 0
0.57142857 0.35 0.83333333 0
0.5 0.35 0.16666667 0
0.5 0.35 0.83333333 0
0.57142857 0.35 0.16666667 0
0.42857143 0.35 0.83333333 0
0.64285714 0.35 0.16666667 0
0.35714286 0.35 0.83333333 0
0.71428571 0.35 0.16666667 0
0.28571429 0.35 0.83333333 0
0.78571429 0.35 0.16666667 0
0.21428571 0.35 0.83333333 0
0.85714286 0.35 0.16666667 0
0.14285714 0.35 0.83333333 0
0.92857143 0.35 0.16666667 0
0.07142857 0.35 0.83333333 0
-0.0 0.4 0.16666667 0
0.0 0.4 0.83333333 0