Titanium oxide                          
   1.00000000000000     
     4.5956392482610937   -0.0000000651464326   -0.0000000212046549
    -0.0000000652168127    4.5956281203952596    0.0000000311059765
    -0.0000000138852183    0.0000000198044219    2.9585177847516668
   Ti   O 
     2     4
Direct
  0.9999959287710212  0.0000039808564338  0.0000000819135693
  0.4999959618736582  0.4999959438665798  0.5000001402151639
  0.3044897384331477  0.3044929988311580  0.9999999466426956
  0.6955143233561145  0.6955169734389415  0.9999999557341184
  0.1955142999352901  0.8044830670336651  0.4999999213662250
  0.8044897476307682  0.1955070359732218  0.4999999541282278
 
  0.00000000E+00  0.00000000E+00  0.00000000E+00
  0.00000000E+00  0.00000000E+00  0.00000000E+00
  0.00000000E+00  0.00000000E+00  0.00000000E+00
  0.00000000E+00  0.00000000E+00  0.00000000E+00
  0.00000000E+00  0.00000000E+00  0.00000000E+00
  0.00000000E+00  0.00000000E+00  0.00000000E+00
