O3 V2                                   
   1.00000000000000     
     7.2870308955727747   -0.0000064508541960   -0.0413162274632097
    -0.0000043948374426    5.0073120958958066   -0.0000029279937438
    -0.6863885999595606   -0.0000025866414155    5.4749547865417574
   V    O 
     8    12
Direct
  0.3447373636969999  0.0036247640530647  0.3064988159559121
  0.6552399693246329  0.9963728330440560  0.6935032683560820
  0.1552627094318879  0.0036279994936876  0.6935055231696126
  0.8447611298277451  0.9963742028139677  0.3065023024904932
  0.8447615513757896  0.5036316409742767  0.8064868008506636
  0.1552612214712070  0.4963703672555084  0.1935095561643791
  0.6552387995038558  0.5036309408940838  0.1935092397436833
  0.3447355498756721  0.4963680049099253  0.8064846783210697
  0.4050053931378059  0.8442912411626793  0.6510193748465554
  0.5949643182446920  0.1556901883425681  0.3489766820597850
  0.0949874950251797  0.8443126468096835  0.3489805871468761
  0.9050355134780474  0.1557097158697829  0.6510207032346642
  0.9050352449974284  0.3443340592300359  0.1510112368606613
  0.0949985294350597  0.6556903657831796  0.8489928640130273
  0.5949709494678928  0.3443088501861524  0.8489931113777303
  0.4050113960617878  0.6556652250765396  0.1510100263546050
  0.2500077189433796  0.3207373556718380  0.5000310045739695
  0.7500095342683295  0.6792615064102350  0.5000308732031726
  0.7499876087492083  0.8207163104870006  0.9999680786090863
  0.2499880036833844  0.1792817995317364  0.9999652726679713
 
  0.00000000E+00  0.00000000E+00  0.00000000E+00
  0.00000000E+00  0.00000000E+00  0.00000000E+00
  0.00000000E+00  0.00000000E+00  0.00000000E+00
  0.00000000E+00  0.00000000E+00  0.00000000E+00
  0.00000000E+00  0.00000000E+00  0.00000000E+00
  0.00000000E+00  0.00000000E+00  0.00000000E+00
  0.00000000E+00  0.00000000E+00  0.00000000E+00
  0.00000000E+00  0.00000000E+00  0.00000000E+00
  0.00000000E+00  0.00000000E+00  0.00000000E+00
  0.00000000E+00  0.00000000E+00  0.00000000E+00
  0.00000000E+00  0.00000000E+00  0.00000000E+00
  0.00000000E+00  0.00000000E+00  0.00000000E+00
  0.00000000E+00  0.00000000E+00  0.00000000E+00
  0.00000000E+00  0.00000000E+00  0.00000000E+00
  0.00000000E+00  0.00000000E+00  0.00000000E+00
  0.00000000E+00  0.00000000E+00  0.00000000E+00
  0.00000000E+00  0.00000000E+00  0.00000000E+00
  0.00000000E+00  0.00000000E+00  0.00000000E+00
  0.00000000E+00  0.00000000E+00  0.00000000E+00
  0.00000000E+00  0.00000000E+00  0.00000000E+00
