Titanium(III) oxide                     
   1.00000000000000     
     5.5683968406841355    0.0615201840546743    0.0167820696391036
     3.1062633834558944    4.6770069212606886    0.0156262839670314
     3.0894718430840991    1.6928487211444017    4.3126826865071548
   Ti   O 
     4     6
Direct
  0.3487338776959534  0.3456604647298250  0.3600575708694247
  0.6478231565855672  0.6488302002682939  0.6486972806168073
  0.1397821382197400  0.1542610357135182  0.1517349102305817
  0.8511766628787154  0.8509489861097832  0.8520199946666794
  0.5527457268629563  0.9439853943186320  0.2374123027388352
  0.4455952385635735  0.0614086920533093  0.7400781934602546
  0.2622123228729246  0.5564368895198522  0.9473249781146873
  0.7601175469476943  0.4381739559211305  0.0540990367852248
  0.9488026078072609  0.2503825792369055  0.5510948032790556
  0.0430107365655977  0.7499118171287409  0.4574809442384470
 
  0.00000000E+00  0.00000000E+00  0.00000000E+00
  0.00000000E+00  0.00000000E+00  0.00000000E+00
  0.00000000E+00  0.00000000E+00  0.00000000E+00
  0.00000000E+00  0.00000000E+00  0.00000000E+00
  0.00000000E+00  0.00000000E+00  0.00000000E+00
  0.00000000E+00  0.00000000E+00  0.00000000E+00
  0.00000000E+00  0.00000000E+00  0.00000000E+00
  0.00000000E+00  0.00000000E+00  0.00000000E+00
  0.00000000E+00  0.00000000E+00  0.00000000E+00
  0.00000000E+00  0.00000000E+00  0.00000000E+00
