Mn6 O8                                  
   1.00000000000000     
     5.7473768732731889    0.0129793093840782   -0.0203843724421836
    -2.8613272708391517    5.4898744209468759   -0.0024617085531298
    -0.0251685075861077   -2.9934531651897207    4.9062900793958564
   Mn   O 
     6     8
Direct
  0.1229358614587923  0.7511340080361819  0.3769413398788259
  0.6217999331509461  0.7489042482705486  0.3758152842206570
  0.6258220803686569  0.2488942404561101  0.3717771544762556
  0.6269642465053593  0.2511509351733139  0.8729205073700257
  0.2506661155975110  0.4998964501469345  0.7506554244862969
  0.0006737813878175  0.9999082700619937  0.0006654491310130
  0.8564333774721504  0.2643419311842976  0.1307448325653979
  0.4106299656029790  0.2637826376571297  0.1308442704682946
  0.8421068083079248  0.2356848736128754  0.6164347632437668
  0.3969161262382457  0.2362555395691004  0.6170940769496980
  0.8664072551460791  0.7356999123694479  0.5921170181235880
  0.8670653495185690  0.7362106650487235  0.1468977122429820
  0.3807563150294158  0.7644008421669000  0.6064773862626751
  0.3808227842155532  0.7637354462464359  0.1606147805805236
 
  0.00000000E+00  0.00000000E+00  0.00000000E+00
  0.00000000E+00  0.00000000E+00  0.00000000E+00
  0.00000000E+00  0.00000000E+00  0.00000000E+00
  0.00000000E+00  0.00000000E+00  0.00000000E+00
  0.00000000E+00  0.00000000E+00  0.00000000E+00
  0.00000000E+00  0.00000000E+00  0.00000000E+00
  0.00000000E+00  0.00000000E+00  0.00000000E+00
  0.00000000E+00  0.00000000E+00  0.00000000E+00
  0.00000000E+00  0.00000000E+00  0.00000000E+00
  0.00000000E+00  0.00000000E+00  0.00000000E+00
  0.00000000E+00  0.00000000E+00  0.00000000E+00
  0.00000000E+00  0.00000000E+00  0.00000000E+00
  0.00000000E+00  0.00000000E+00  0.00000000E+00
  0.00000000E+00  0.00000000E+00  0.00000000E+00
