Chromium(VI) oxide
1.0
        4.7890000343         0.0000000000         0.0000000000
        0.0000000000         8.5570001602         0.0000000000
        0.0000000000         0.0000000000         5.7430000305
   Cr    O
    4   12
Direct
     0.000000000         0.403239995         0.250000000
     0.000000000         0.596760035         0.750000000
     0.500000000         0.903239965         0.250000000
     0.500000000         0.096760005         0.750000000
     0.115900002         0.500000000         0.000000000
     0.115900002         0.500000000         0.500000000
     0.615899980         0.000000000         0.000000000
     0.615899980         0.000000000         0.500000000
     0.124499999         0.232299998         0.250000000
     0.124499999         0.767700016         0.750000000
     0.624499977         0.732299984         0.250000000
     0.624499977         0.267700016         0.750000000
     0.671599984         0.392199993         0.250000000
     0.671599984         0.607800007         0.750000000
     0.171600014         0.892199993         0.250000000
     0.171600014         0.107800007         0.750000000
