V1 O1                                   
   1.00000000000000     
     6.3236036736786243   -0.0000798840977473   -0.0000613206762347
     3.1617326508647996    5.4764423411013592   -0.0000616497262360
     3.1617298186535043    1.8254255095657637    4.5467680867688793
   V    O 
     8     8
Direct
 -0.0000000915184926 -0.0000002139248726 -0.0000000073511092
  0.0000002074655171  0.5000003491197429  0.9999998070406826
  0.5000002252793830  0.0000000429643774  0.9999999429030423
  0.4999997865494809  0.4999999344511665  0.0000001594400499
  0.9999998904000925  0.9999999074385945  0.5000003573918177
  0.0000000768274681  0.4999999226415008  0.4999998303257506
  0.5000000288102633  0.0000000508645342  0.4999998131124336
  0.4999999597995973  0.5000000394038397  0.5000000615597051
  0.2500000808066487  0.2500001840674816  0.2499995564662279
  0.2500000243201863  0.2499998298517319  0.7500004051404935
  0.2500003813445907  0.7500001326597732  0.2499994454588019
  0.2500000979573330  0.7499997545890528  0.7500003988285526
  0.7499999668932217  0.2500003044379642  0.2499996276181834
  0.7499996232714837  0.2499998378743404  0.7500004947655824
  0.7499999122912101  0.7500000831866399  0.2499996515644241
  0.7499998295020158  0.7499998403741327  0.7500004557353688
 
  0.00000000E+00  0.00000000E+00  0.00000000E+00
  0.00000000E+00  0.00000000E+00  0.00000000E+00
  0.00000000E+00  0.00000000E+00  0.00000000E+00
  0.00000000E+00  0.00000000E+00  0.00000000E+00
  0.00000000E+00  0.00000000E+00  0.00000000E+00
  0.00000000E+00  0.00000000E+00  0.00000000E+00
  0.00000000E+00  0.00000000E+00  0.00000000E+00
  0.00000000E+00  0.00000000E+00  0.00000000E+00
  0.00000000E+00  0.00000000E+00  0.00000000E+00
  0.00000000E+00  0.00000000E+00  0.00000000E+00
  0.00000000E+00  0.00000000E+00  0.00000000E+00
  0.00000000E+00  0.00000000E+00  0.00000000E+00
  0.00000000E+00  0.00000000E+00  0.00000000E+00
  0.00000000E+00  0.00000000E+00  0.00000000E+00
  0.00000000E+00  0.00000000E+00  0.00000000E+00
  0.00000000E+00  0.00000000E+00  0.00000000E+00
