Co6 O8                                  
   1.00000000000000     
    -4.0268989404644264   -4.0268824117631690    0.0000685984286389
    -4.0268991281597364    0.0000687791807319   -4.0269135452632607
     0.0000685687690535   -4.0268823763774808   -4.0269133890040552
   Co   O 
     6     8
Direct
  0.7500025948205291  0.7500030914530456  0.7499983039936211
  0.0000018330919147  0.0000014905844026  0.9999970715257547
  0.8749966375228553  0.3749984667661792  0.3750022346328592
  0.3749985003235281  0.8749965960059143  0.3750023877837165
  0.3749976344778929  0.3749975645032322  0.8750031738147968
  0.3749972972719320  0.3749976125866823  0.3750018433105495
  0.5854221156595898  0.1381930421906361  0.1381887585071411
  0.1381932299462463  0.5854221813501681  0.1381958180556495
  0.1381903614562248  0.1381970467819542  0.5854253925788342
  0.1381958634137774  0.1381878795019915  0.1381856453748966
  0.1645959432513706  0.6118057058245583  0.6118029610162665
  0.6118053745624081  0.1645957563992155  0.6117960448018422
  0.6118038856740853  0.6117971375043254  0.1645989557082288
  0.6117987285276456  0.6118064285477018  0.6118014088958361
 
  0.00000000E+00  0.00000000E+00  0.00000000E+00
  0.00000000E+00  0.00000000E+00  0.00000000E+00
  0.00000000E+00  0.00000000E+00  0.00000000E+00
  0.00000000E+00  0.00000000E+00  0.00000000E+00
  0.00000000E+00  0.00000000E+00  0.00000000E+00
  0.00000000E+00  0.00000000E+00  0.00000000E+00
  0.00000000E+00  0.00000000E+00  0.00000000E+00
  0.00000000E+00  0.00000000E+00  0.00000000E+00
  0.00000000E+00  0.00000000E+00  0.00000000E+00
  0.00000000E+00  0.00000000E+00  0.00000000E+00
  0.00000000E+00  0.00000000E+00  0.00000000E+00
  0.00000000E+00  0.00000000E+00  0.00000000E+00
  0.00000000E+00  0.00000000E+00  0.00000000E+00
  0.00000000E+00  0.00000000E+00  0.00000000E+00
