Mn6 O8                                  
   1.00000000000000     
     5.8004503626080792    0.0111579942143377   -0.0181734685781399
    -2.8895188099831048    5.5256156055587899   -0.0124435981263205
    -0.0213231972494897   -3.0220548310807795    4.9509899932508628
   Mn   O 
     6     8
Direct
  0.1236357762544316  0.7509611436022327  0.3766565832274217
  0.6226746751496478  0.7490406157193583  0.3756972393281502
  0.6256969517098344  0.2490403214180918  0.3726765728623551
  0.6266568074823984  0.2509616967398526  0.8736364224448571
  0.2509514644754132  0.4999991520919160  0.7509551354437354
  0.0009574479539226  0.0000005439407079  0.0009519713135938
  0.8570817483107210  0.2667313682066647  0.1322230259279492
  0.4120107397645682  0.2662512982154384  0.1313805171188559
  0.8403470324552194  0.2332606759465219  0.6154891089654597
  0.3957640238611597  0.2337567144122873  0.6151349607518399
  0.8654883280482262  0.7332606275512369  0.5903453804433971
  0.8651327520045388  0.7337543115743933  0.1457622410465774
  0.3822220561307462  0.7667307088837998  0.6070805898595667
  0.3813801963991795  0.7662508216974985  0.1620102512662406
 
  0.00000000E+00  0.00000000E+00  0.00000000E+00
  0.00000000E+00  0.00000000E+00  0.00000000E+00
  0.00000000E+00  0.00000000E+00  0.00000000E+00
  0.00000000E+00  0.00000000E+00  0.00000000E+00
  0.00000000E+00  0.00000000E+00  0.00000000E+00
  0.00000000E+00  0.00000000E+00  0.00000000E+00
  0.00000000E+00  0.00000000E+00  0.00000000E+00
  0.00000000E+00  0.00000000E+00  0.00000000E+00
  0.00000000E+00  0.00000000E+00  0.00000000E+00
  0.00000000E+00  0.00000000E+00  0.00000000E+00
  0.00000000E+00  0.00000000E+00  0.00000000E+00
  0.00000000E+00  0.00000000E+00  0.00000000E+00
  0.00000000E+00  0.00000000E+00  0.00000000E+00
  0.00000000E+00  0.00000000E+00  0.00000000E+00
