Lithium cobalt oxide                    
   1.00000000000000     
     2.8077649929983197    0.0000243972944094    0.0000017492918797
    -1.4038613695890669    2.4316079903799910   -0.0000017267492524
     0.0000087310859111   -0.0000048870199467   13.9856500188098618
   Li   Co   O 
     3     3     6
Direct
  0.0000000003915221  0.0000000137002899  0.9999999658087476
  0.6666666942761832  0.3333333438154907  0.3333333941149538
  0.3333333345409556  0.6666666968448949  0.6666666572689052
  0.0000001810061677  0.0000001122444379  0.5000009927368130
  0.6666664978873794  0.3333333542518748  0.8333337177302819
  0.3333331211299431  0.6666665558440744  0.1666655964593355
 -0.0000001328855599  0.0000002748127612  0.2399405455239435
  0.0000002842356886 -0.0000002837358612  0.7600592591084295
  0.6666663718430715  0.3333336338696120  0.5732738960001181
  0.6666670569633842  0.3333331335484134  0.0933927439837713
  0.3333331997000822  0.6666669366944926  0.9066071980252455
  0.3333335109111848  0.6666663481095364  0.4267260402394451
 
  0.00000000E+00  0.00000000E+00  0.00000000E+00
  0.00000000E+00  0.00000000E+00  0.00000000E+00
  0.00000000E+00  0.00000000E+00  0.00000000E+00
  0.00000000E+00  0.00000000E+00  0.00000000E+00
  0.00000000E+00  0.00000000E+00  0.00000000E+00
  0.00000000E+00  0.00000000E+00  0.00000000E+00
  0.00000000E+00  0.00000000E+00  0.00000000E+00
  0.00000000E+00  0.00000000E+00  0.00000000E+00
  0.00000000E+00  0.00000000E+00  0.00000000E+00
  0.00000000E+00  0.00000000E+00  0.00000000E+00
  0.00000000E+00  0.00000000E+00  0.00000000E+00
  0.00000000E+00  0.00000000E+00  0.00000000E+00
