Chromium(VI) oxide                      
   1.00000000000000     
     4.7490286028165576    0.0000001357408478    0.0000007643254600
     0.0000002667612399    8.5879105038332693    0.0000053352111048
     0.0000009073470311    0.0000035386458225    5.7284304765895691
   Cr   O 
     4    12
Direct
  0.0005704467111443  0.4018158200250284  0.2499989495959980
  0.0005705360332016  0.5981843291148081  0.7500010888717696
  0.5005538373414922  0.9018156542036166  0.2500001205821079
  0.5005543005642039  0.0981843440592414  0.7499998280936993
  0.1157949519205772  0.5000000615742266  0.0000000180792199
  0.1157953076729683  0.5000000129103057  0.4999999478871402
  0.6158048882496203  0.0000000606028010  0.9999997288446636
  0.6158046902156045  0.0000000153031792  0.5000002277435982
  0.1257551927484428  0.2315616076968823  0.2500006000609361
  0.1257550804349137  0.7684383982514831  0.7499993395825229
  0.6257065423945534  0.7315706134861486  0.2500004461801737
  0.6257068507327190  0.2684291868513071  0.7499993011994803
  0.6699359295202356  0.3910087780912690  0.2500007319678375
  0.6699358458878990  0.6089912810591969  0.7499994660384104
  0.1698775624540900  0.8910265982774206  0.2500001204362974
  0.1698779491183231  0.1089732524930795  0.7500000848361452
 
  0.00000000E+00  0.00000000E+00  0.00000000E+00
  0.00000000E+00  0.00000000E+00  0.00000000E+00
  0.00000000E+00  0.00000000E+00  0.00000000E+00
  0.00000000E+00  0.00000000E+00  0.00000000E+00
  0.00000000E+00  0.00000000E+00  0.00000000E+00
  0.00000000E+00  0.00000000E+00  0.00000000E+00
  0.00000000E+00  0.00000000E+00  0.00000000E+00
  0.00000000E+00  0.00000000E+00  0.00000000E+00
  0.00000000E+00  0.00000000E+00  0.00000000E+00
  0.00000000E+00  0.00000000E+00  0.00000000E+00
  0.00000000E+00  0.00000000E+00  0.00000000E+00
  0.00000000E+00  0.00000000E+00  0.00000000E+00
  0.00000000E+00  0.00000000E+00  0.00000000E+00
  0.00000000E+00  0.00000000E+00  0.00000000E+00
  0.00000000E+00  0.00000000E+00  0.00000000E+00
  0.00000000E+00  0.00000000E+00  0.00000000E+00
