Fe8 O8                                  
   1.00000000000000     
    -4.2339488085630625   -4.2083124586033032    0.0812174288477061
    -4.1559820179807598    0.0031264897969849   -4.1561907044705118
     0.1964741106032179   -4.3197479820885256   -4.3512525919796410
   Fe   O 
     8     8
Direct
  0.9999790151999264  0.9999766214208705  0.0000336436768151
  0.0000176061764989  0.0000095072461477  0.4999568853097927
  0.0000041833457018  0.5000206159901026  0.0000138616235930
  0.0000072545584473  0.5000114139372656  0.4999796434643571
  0.5000155990627562  0.0000382565009858  0.0000022742714094
  0.5000040596200037  0.0000108712848501  0.4999829252060479
  0.4999853990648546  0.4999783480935349  0.0000346580414785
  0.5000057217086038  0.5000074217931783  0.4999658281357640
  0.2505686707078141  0.2328928701443118  0.2494419044616691
  0.2301627619406048  0.2669706444997644  0.7518693460231205
  0.2505516420032166  0.7499985193409557  0.2511501381770174
  0.2685845374235498  0.7497426261057640  0.7488968962649807
  0.7313971042918652  0.2502461804650551  0.2511074582825330
  0.7494585462514536  0.2499915172178717  0.7488330729945218
  0.7698376385658889  0.7330150965623048  0.2481523814252000
  0.7494202600788071  0.7670894893970370  0.7505790826416856
 
  0.00000000E+00  0.00000000E+00  0.00000000E+00
  0.00000000E+00  0.00000000E+00  0.00000000E+00
  0.00000000E+00  0.00000000E+00  0.00000000E+00
  0.00000000E+00  0.00000000E+00  0.00000000E+00
  0.00000000E+00  0.00000000E+00  0.00000000E+00
  0.00000000E+00  0.00000000E+00  0.00000000E+00
  0.00000000E+00  0.00000000E+00  0.00000000E+00
  0.00000000E+00  0.00000000E+00  0.00000000E+00
  0.00000000E+00  0.00000000E+00  0.00000000E+00
  0.00000000E+00  0.00000000E+00  0.00000000E+00
  0.00000000E+00  0.00000000E+00  0.00000000E+00
  0.00000000E+00  0.00000000E+00  0.00000000E+00
  0.00000000E+00  0.00000000E+00  0.00000000E+00
  0.00000000E+00  0.00000000E+00  0.00000000E+00
  0.00000000E+00  0.00000000E+00  0.00000000E+00
  0.00000000E+00  0.00000000E+00  0.00000000E+00
