Fe3 O4                                  
   1.00000000000000     
     8.3429450856701504    0.0000214521745993    0.0000227487573425
     0.0000214258880358    8.3430439562955350    0.0000003202160402
     0.0000227375238181    0.0000003288285921    8.3430952406439651
   Fe   O 
    24    32
Direct
  0.7499995782892128  0.0000005459021253  0.2499988412872298
  0.2500033697782698  0.9999984883482398  0.7500029565239288
  0.9999999272487372  0.2500013260288725  0.7500001820724975
  0.0000046457819920  0.7499966961885036  0.2499977633386052
  0.7500018757101472  0.4999986981528934  0.7500016035361696
  0.2499962804672151  0.5000026408206821  0.2499967799126281
  0.4999988338209960  0.2499989506518574  0.2499976364564347
  0.4999974622472649  0.7500034895356933  0.7500042469171007
  0.1249989432069327  0.1250033662347292  0.1249995777656423
  0.8750010045131731  0.8749986727349324  0.8749979199002951
  0.6250003078930959  0.1250029985414969  0.6250013988239687
  0.3749994074656797  0.8749981660483215  0.3750009017316245
  0.1249990769009983  0.6250005132197316  0.6250011019613453
  0.8750003386774097  0.3749986104089800  0.3750007076189519
  0.6250006725028499  0.6250002804984760  0.1250004312692710
  0.3749985564493272  0.3749979844157281  0.8749981524326742
  0.4999978246081795  0.4999991849593073  0.4999987692530894
  0.2500002063548266  0.7499982987489631  0.0000023911378975
  0.7499995406208555  0.2499988903012422  0.0000000460638887
  0.4999986067903208  0.9999986685342250  0.9999989374371694
  0.2499990772858638  0.2500010385720017  0.4999983921909816
  0.7500020184070380  0.7500013796376379  0.4999992529658783
  0.0000046764782766  0.5000018157186616  0.0000035794591540
  0.9999999695799673  0.9999997790535531  0.4999985953386243
  0.2545826704699294  0.2545867664879609  0.2545835485958463
  0.7454155365361856  0.7454135307498504  0.7454139358318983
  0.4954113643941156  0.9954120939321811  0.7545874289121457
  0.5045877434245014  0.0045866040156355  0.2454134004870383
  0.9954130378469230  0.7545847337251033  0.4954137934965388
  0.0045853948877621  0.2454153255833376  0.5045860594721319
  0.7545886149812588  0.4954138413153757  0.9954119834896034
  0.2454115570748243  0.5045861466485420  0.0045890129271555
  0.0045904430086949  0.5045876939085261  0.2454110006166843
  0.9954106510017056  0.4954117309094030  0.7545891408840433
  0.5045854885169803  0.2454161914911950  0.0045842430668870
  0.4954138582620757  0.7545849720800248  0.9954139943293825
  0.2454135419777188  0.0045865479540836  0.5045864927652275
  0.7545867694592800  0.9954125210187357  0.4954126854800833
  0.2545848593692810  0.7545848577251206  0.7545852570354583
  0.7454161459901769  0.2454144127054363  0.2454150576717922
  0.4954093951832377  0.4954127537568098  0.2545885008432549
  0.5045894478010098  0.5045870143801920  0.7454110843696142
  0.9954142062991451  0.2545878446036340  0.9954139380880065
  0.0045853341350295  0.7454129695639935  0.0045863933271448
  0.0045882416637326  0.0045880748274740  0.7454121801027611
  0.9954119738671352  0.9954114877677327  0.2545873117039008
  0.5045870900561482  0.7454126988172902  0.5045862395440111
  0.4954147766482464  0.2545875027225080  0.4954150535368882
  0.7545862418444571  0.2545861925762907  0.7545852000593101
  0.2454134424209755  0.7454123357001379  0.2454154372260291
  0.2545872114572347  0.4954145409764479  0.4954109842046108
  0.7454114950582564  0.5045880521934194  0.5045889775721975
  0.7454143435957619  0.0045868159453661  0.0045868651375898
  0.2545861496055082  0.9954132640645454  0.9954128404866722
  0.7545868095993882  0.7545849078591402  0.2545859057936681
  0.2454139624846832  0.2454150907376658  0.7454158875473738
 
  0.00000000E+00  0.00000000E+00  0.00000000E+00
  0.00000000E+00  0.00000000E+00  0.00000000E+00
  0.00000000E+00  0.00000000E+00  0.00000000E+00
  0.00000000E+00  0.00000000E+00  0.00000000E+00
  0.00000000E+00  0.00000000E+00  0.00000000E+00
  0.00000000E+00  0.00000000E+00  0.00000000E+00
  0.00000000E+00  0.00000000E+00  0.00000000E+00
  0.00000000E+00  0.00000000E+00  0.00000000E+00
  0.00000000E+00  0.00000000E+00  0.00000000E+00
  0.00000000E+00  0.00000000E+00  0.00000000E+00
  0.00000000E+00  0.00000000E+00  0.00000000E+00
  0.00000000E+00  0.00000000E+00  0.00000000E+00
  0.00000000E+00  0.00000000E+00  0.00000000E+00
  0.00000000E+00  0.00000000E+00  0.00000000E+00
  0.00000000E+00  0.00000000E+00  0.00000000E+00
  0.00000000E+00  0.00000000E+00  0.00000000E+00
  0.00000000E+00  0.00000000E+00  0.00000000E+00
  0.00000000E+00  0.00000000E+00  0.00000000E+00
  0.00000000E+00  0.00000000E+00  0.00000000E+00
  0.00000000E+00  0.00000000E+00  0.00000000E+00
  0.00000000E+00  0.00000000E+00  0.00000000E+00
  0.00000000E+00  0.00000000E+00  0.00000000E+00
  0.00000000E+00  0.00000000E+00  0.00000000E+00
  0.00000000E+00  0.00000000E+00  0.00000000E+00
  0.00000000E+00  0.00000000E+00  0.00000000E+00
  0.00000000E+00  0.00000000E+00  0.00000000E+00
  0.00000000E+00  0.00000000E+00  0.00000000E+00
  0.00000000E+00  0.00000000E+00  0.00000000E+00
  0.00000000E+00  0.00000000E+00  0.00000000E+00
  0.00000000E+00  0.00000000E+00  0.00000000E+00
  0.00000000E+00  0.00000000E+00  0.00000000E+00
  0.00000000E+00  0.00000000E+00  0.00000000E+00
  0.00000000E+00  0.00000000E+00  0.00000000E+00
  0.00000000E+00  0.00000000E+00  0.00000000E+00
  0.00000000E+00  0.00000000E+00  0.00000000E+00
  0.00000000E+00  0.00000000E+00  0.00000000E+00
  0.00000000E+00  0.00000000E+00  0.00000000E+00
  0.00000000E+00  0.00000000E+00  0.00000000E+00
  0.00000000E+00  0.00000000E+00  0.00000000E+00
  0.00000000E+00  0.00000000E+00  0.00000000E+00
  0.00000000E+00  0.00000000E+00  0.00000000E+00
  0.00000000E+00  0.00000000E+00  0.00000000E+00
  0.00000000E+00  0.00000000E+00  0.00000000E+00
  0.00000000E+00  0.00000000E+00  0.00000000E+00
  0.00000000E+00  0.00000000E+00  0.00000000E+00
  0.00000000E+00  0.00000000E+00  0.00000000E+00
  0.00000000E+00  0.00000000E+00  0.00000000E+00
  0.00000000E+00  0.00000000E+00  0.00000000E+00
  0.00000000E+00  0.00000000E+00  0.00000000E+00
  0.00000000E+00  0.00000000E+00  0.00000000E+00
  0.00000000E+00  0.00000000E+00  0.00000000E+00
  0.00000000E+00  0.00000000E+00  0.00000000E+00
  0.00000000E+00  0.00000000E+00  0.00000000E+00
  0.00000000E+00  0.00000000E+00  0.00000000E+00
  0.00000000E+00  0.00000000E+00  0.00000000E+00
  0.00000000E+00  0.00000000E+00  0.00000000E+00
