Titanium(III) oxide                     
   1.00000000000000     
     5.4615455760231120    0.0487468082123865    0.0336688777382906
     3.0352945568406784    4.5406807123080224    0.0336691406375443
     3.0352991371451705    1.6394667414666626    4.2345115337592469
   Ti   O 
     4     6
Direct
  0.3445104564691732  0.3445122201276973  0.3445109481723350
  0.6554868349052896  0.6554853171674750  0.6554850946828097
  0.1554903253458235  0.1554881046635046  0.1554873808575579
  0.8445068684984847  0.8445086240924766  0.8445093138351183
  0.5644571920472643  0.9355472105701992  0.2500162500367722
  0.4355666693828084  0.0644355946043973  0.7499831777621822
  0.2500157871523712  0.5644573457494459  0.9355475406691340
  0.7499827772266769  0.4355667388784141  0.0644360215466264
  0.9355474263620920  0.2500158381570330  0.5644572602314284
  0.0644356776100139  0.7499830209893616  0.4355670272060337
 
  0.00000000E+00  0.00000000E+00  0.00000000E+00
  0.00000000E+00  0.00000000E+00  0.00000000E+00
  0.00000000E+00  0.00000000E+00  0.00000000E+00
  0.00000000E+00  0.00000000E+00  0.00000000E+00
  0.00000000E+00  0.00000000E+00  0.00000000E+00
  0.00000000E+00  0.00000000E+00  0.00000000E+00
  0.00000000E+00  0.00000000E+00  0.00000000E+00
  0.00000000E+00  0.00000000E+00  0.00000000E+00
  0.00000000E+00  0.00000000E+00  0.00000000E+00
  0.00000000E+00  0.00000000E+00  0.00000000E+00
