Fe2 O3                                  
   1.00000000000000     
     5.0551886336200456   -0.0000156275819567    0.0000101209511632
    -2.5276077034183473    4.3779085711968859   -0.0000035697907623
     0.0000569152074984    0.0000082998078724   27.4972695693461020
   Fe   O 
    24    36
Direct
  0.9999891341438576  0.9999784215738451  0.1766840264520417
  0.0000235121082989  0.0000521853619566  0.8230341036418291
  0.9999776692544839  0.9999892542180805  0.5733247473798682
  0.0000498316877746  0.0000224336972442  0.9269420769557277
  0.6666364719110740  0.3332975769589867  0.8434650579497611
  0.6666606526547124  0.3333262432186759  0.4895029547234692
  0.6666654031428608  0.3333319450823790  0.2397257407479983
  0.6666924989662166  0.3333483284738538  0.5937385827557913
  0.3333318476416161  0.6666652996732252  0.5102795587345121
  0.3333470052289940  0.6666895517641565  0.1562661689330629
  0.3332995296239186  0.6666405358094867  0.9065277102615134
  0.3333266045618987  0.6666613917782995  0.2604910463485493
  0.9999889980011447  0.9999785219515972  0.6766840173355090
  0.0000238776377664  0.0000519244884819  0.3230341082455226
  0.9999778067737423  0.9999892515072554  0.0733247443993613
  0.0000502900443625  0.0000223253499984  0.4269420570663403
  0.6666365565183568  0.3332975261217628  0.3434650356412891
  0.6666604488727396  0.3333259639978222  0.9895030051910431
  0.6666652088528586  0.3333319181403682  0.7397257544653143
  0.6666925465196326  0.3333481876260835  0.0937386125369336
  0.3333320620829517  0.6666655236688268  0.0102795784397771
  0.3333468275958663  0.6666894476912477  0.6562661654263828
  0.3332997731008957  0.6666408787468073  0.4065277028799174
  0.3333265586259037  0.6666613435342672  0.7604910443512956
  0.3051925858174369  0.0000362439412573  0.1250087639213137
  0.3051929207912212  0.0000362366509448  0.6250088138614930
  0.6954793983115908  0.9999816498176624  0.3749942266155993
  0.6954792378249636  0.9999815945868618  0.8749942160465669
  0.0000222793672704  0.3051849820453379  0.1250074043379581
  0.0000220384209648  0.3051848583335345  0.6250073877025979
  0.9999915387894400  0.6954845926577409  0.3749924915005556
  0.9999915016959597  0.6954846927395004  0.8749924901501742
  0.6948565945481228  0.6948421330936171  0.1250087332226592
  0.6948564910105480  0.6948421397995265  0.6250087241085978
  0.3044869003125943  0.3044955649490764  0.3749927841231001
  0.3044868277706296  0.3044954140948958  0.8749927843571842
  0.9717033480748122  0.3333281127853539  0.2916776347333676
  0.9717032823570142  0.3333281271645656  0.7916776453299738
  0.3621636124391172  0.3332285656956269  0.0417141798923179
  0.3621637346291498  0.3332285573771975  0.5417141701135155
  0.6666622183088874  0.6383788447605854  0.2916782001115901
  0.6666621794959834  0.6383788606118905  0.7916782100948916
  0.6667686118398201  0.0289418627145301  0.0417136639570912
  0.6667684883262125  0.0289417166709615  0.5417136507376185
  0.3616110277523538  0.0282792776725721  0.2916780739040430
  0.3616110426127658  0.0282792681734864  0.7916780935581227
  0.9710614030072501  0.6378413450452469  0.0417126770486199
  0.9710613032002434  0.6378410986054038  0.5417126630441634
  0.6383694847462051  0.6666417809908494  0.4583084658842512
  0.6383693987953403  0.6666417135160650  0.9583084449508399
  0.0289516543777429  0.6667930421912763  0.2083047875502169
  0.0289516492060567  0.6667929863676839  0.7083048029479611
  0.3333488936241588  0.9717166889064032  0.4583087979343915
  0.3333487428566455  0.9717166302398894  0.9583087706286461
  0.3332094458906530  0.3621470760988205  0.2083037492031414
  0.3332095001948818  0.3621471594853525  0.7083037555021546
  0.0282657458994905  0.3616176347106975  0.4583087674173245
  0.0282658177781971  0.3616176743022825  0.9583087521318330
  0.6378552603678844  0.9710581798656619  0.2083047969369475
  0.6378551600064726  0.9710581489029623  0.7083048115763660
 
  0.00000000E+00  0.00000000E+00  0.00000000E+00
  0.00000000E+00  0.00000000E+00  0.00000000E+00
  0.00000000E+00  0.00000000E+00  0.00000000E+00
  0.00000000E+00  0.00000000E+00  0.00000000E+00
  0.00000000E+00  0.00000000E+00  0.00000000E+00
  0.00000000E+00  0.00000000E+00  0.00000000E+00
  0.00000000E+00  0.00000000E+00  0.00000000E+00
  0.00000000E+00  0.00000000E+00  0.00000000E+00
  0.00000000E+00  0.00000000E+00  0.00000000E+00
  0.00000000E+00  0.00000000E+00  0.00000000E+00
  0.00000000E+00  0.00000000E+00  0.00000000E+00
  0.00000000E+00  0.00000000E+00  0.00000000E+00
  0.00000000E+00  0.00000000E+00  0.00000000E+00
  0.00000000E+00  0.00000000E+00  0.00000000E+00
  0.00000000E+00  0.00000000E+00  0.00000000E+00
  0.00000000E+00  0.00000000E+00  0.00000000E+00
  0.00000000E+00  0.00000000E+00  0.00000000E+00
  0.00000000E+00  0.00000000E+00  0.00000000E+00
  0.00000000E+00  0.00000000E+00  0.00000000E+00
  0.00000000E+00  0.00000000E+00  0.00000000E+00
  0.00000000E+00  0.00000000E+00  0.00000000E+00
  0.00000000E+00  0.00000000E+00  0.00000000E+00
  0.00000000E+00  0.00000000E+00  0.00000000E+00
  0.00000000E+00  0.00000000E+00  0.00000000E+00
  0.00000000E+00  0.00000000E+00  0.00000000E+00
  0.00000000E+00  0.00000000E+00  0.00000000E+00
  0.00000000E+00  0.00000000E+00  0.00000000E+00
  0.00000000E+00  0.00000000E+00  0.00000000E+00
  0.00000000E+00  0.00000000E+00  0.00000000E+00
  0.00000000E+00  0.00000000E+00  0.00000000E+00
  0.00000000E+00  0.00000000E+00  0.00000000E+00
  0.00000000E+00  0.00000000E+00  0.00000000E+00
  0.00000000E+00  0.00000000E+00  0.00000000E+00
  0.00000000E+00  0.00000000E+00  0.00000000E+00
  0.00000000E+00  0.00000000E+00  0.00000000E+00
  0.00000000E+00  0.00000000E+00  0.00000000E+00
  0.00000000E+00  0.00000000E+00  0.00000000E+00
  0.00000000E+00  0.00000000E+00  0.00000000E+00
  0.00000000E+00  0.00000000E+00  0.00000000E+00
  0.00000000E+00  0.00000000E+00  0.00000000E+00
  0.00000000E+00  0.00000000E+00  0.00000000E+00
  0.00000000E+00  0.00000000E+00  0.00000000E+00
  0.00000000E+00  0.00000000E+00  0.00000000E+00
  0.00000000E+00  0.00000000E+00  0.00000000E+00
  0.00000000E+00  0.00000000E+00  0.00000000E+00
  0.00000000E+00  0.00000000E+00  0.00000000E+00
  0.00000000E+00  0.00000000E+00  0.00000000E+00
  0.00000000E+00  0.00000000E+00  0.00000000E+00
  0.00000000E+00  0.00000000E+00  0.00000000E+00
  0.00000000E+00  0.00000000E+00  0.00000000E+00
  0.00000000E+00  0.00000000E+00  0.00000000E+00
  0.00000000E+00  0.00000000E+00  0.00000000E+00
  0.00000000E+00  0.00000000E+00  0.00000000E+00
  0.00000000E+00  0.00000000E+00  0.00000000E+00
  0.00000000E+00  0.00000000E+00  0.00000000E+00
  0.00000000E+00  0.00000000E+00  0.00000000E+00
  0.00000000E+00  0.00000000E+00  0.00000000E+00
  0.00000000E+00  0.00000000E+00  0.00000000E+00
  0.00000000E+00  0.00000000E+00  0.00000000E+00
  0.00000000E+00  0.00000000E+00  0.00000000E+00
