Dibarium titanate - beta                
   1.00000000000000     
     6.1722940765536416   -0.0000052841054815   -0.0346268828079347
    -0.0000066345094404    7.7279286819591677   -0.0000039852693157
    -0.6165549431478575   -0.0000048714832558   10.5842457801270609
   Ba   Ti   O 
     8     4    16
Direct
  0.7670016707447544  0.8418164406434698  0.0751216416664633
  0.2329975995521636  0.1581817430383055  0.9248791014944118
  0.7329968726152387  0.3418165775812767  0.4248784730282509
  0.2670009753441747  0.6581823942759470  0.5751220017935736
  0.2243978560852753  0.5002034786130807  0.1984315700580837
  0.7755993430402057  0.4997953040033920  0.8015682643933957
  0.2755997994026771  0.0002037114670301  0.3015690813304204
  0.7243983874853726  0.9997944811386077  0.6984310076025224
  0.7401772251380265  0.2792652899599659  0.0825324501461679
  0.2598255365101849  0.7207379200624331  0.9174671441649167
  0.7598216919786083  0.7792632410699696  0.4174669731769001
  0.2401747499719775  0.2207367492635441  0.5825330360552954
  0.7871100065991925  0.5081681287516417  0.0668484239542124
  0.2129098534422411  0.4918346410534014  0.9331495433644648
  0.7128966864714315  0.0081674642621863  0.4331480098633804
  0.2871007890292248  0.9918338308464385  0.5668499247405592
  0.5221758623878827  0.2374614200954568  0.1871182220068022
  0.4778229736560107  0.7625452503886336  0.8128803976593417
  0.9778229930860718  0.7374578461454675  0.3128811141235843
  0.0221740191656394  0.2625410996511377  0.6871189864981773
  0.9952650862094288  0.1745424772234045  0.1374102804921051
  0.0047355620207910  0.8254559771569916  0.8625906827941279
  0.5047318940674188  0.6745380358936899  0.3625907624214975
  0.4952644929089018  0.3254574417535139  0.6374106937806658
  0.6710594893973578  0.1817560458647094  0.9272671422258796
  0.3289403083252935  0.8182419946147306  0.0727339791166557
  0.8289402129608305  0.6817581342855874  0.5727342782371991
  0.1710580624036240  0.3182428808959870  0.4272668138109452
 
  0.00000000E+00  0.00000000E+00  0.00000000E+00
  0.00000000E+00  0.00000000E+00  0.00000000E+00
  0.00000000E+00  0.00000000E+00  0.00000000E+00
  0.00000000E+00  0.00000000E+00  0.00000000E+00
  0.00000000E+00  0.00000000E+00  0.00000000E+00
  0.00000000E+00  0.00000000E+00  0.00000000E+00
  0.00000000E+00  0.00000000E+00  0.00000000E+00
  0.00000000E+00  0.00000000E+00  0.00000000E+00
  0.00000000E+00  0.00000000E+00  0.00000000E+00
  0.00000000E+00  0.00000000E+00  0.00000000E+00
  0.00000000E+00  0.00000000E+00  0.00000000E+00
  0.00000000E+00  0.00000000E+00  0.00000000E+00
  0.00000000E+00  0.00000000E+00  0.00000000E+00
  0.00000000E+00  0.00000000E+00  0.00000000E+00
  0.00000000E+00  0.00000000E+00  0.00000000E+00
  0.00000000E+00  0.00000000E+00  0.00000000E+00
  0.00000000E+00  0.00000000E+00  0.00000000E+00
  0.00000000E+00  0.00000000E+00  0.00000000E+00
  0.00000000E+00  0.00000000E+00  0.00000000E+00
  0.00000000E+00  0.00000000E+00  0.00000000E+00
  0.00000000E+00  0.00000000E+00  0.00000000E+00
  0.00000000E+00  0.00000000E+00  0.00000000E+00
  0.00000000E+00  0.00000000E+00  0.00000000E+00
  0.00000000E+00  0.00000000E+00  0.00000000E+00
  0.00000000E+00  0.00000000E+00  0.00000000E+00
  0.00000000E+00  0.00000000E+00  0.00000000E+00
  0.00000000E+00  0.00000000E+00  0.00000000E+00
  0.00000000E+00  0.00000000E+00  0.00000000E+00
