Dibarium titanate - beta
1.0
        6.0960001945         0.0000000000         0.0000000000
        0.0000000000         7.6810002327         0.0000000000
       -0.5500443341         0.0000000000        10.5306447020
   Ba   Ti    O
    8    4   16
Direct
     0.765399992         0.841199994         0.075400002
     0.234600008         0.158800006         0.924600005
     0.734600008         0.341199994         0.424600005
     0.265399992         0.658800006         0.575399995
     0.227899998         0.499799997         0.199399993
     0.772099972         0.500200033         0.800599992
     0.272100002         0.999799967         0.300599992
     0.727900028         0.000200003         0.699400008
     0.741100013         0.279799998         0.082400002
     0.258899987         0.720200002         0.917599976
     0.758899987         0.779799998         0.417600006
     0.241100013         0.220200002         0.582400024
     0.781799972         0.506600022         0.068999998
     0.218200028         0.493399978         0.930999994
     0.718200028         0.006600022         0.430999994
     0.281799972         0.993399978         0.569000006
     0.518999994         0.236599997         0.185699999
     0.481000006         0.763400018         0.814300001
     0.981000006         0.736599982         0.314300001
     0.018999994         0.263400018         0.685699999
     0.995100021         0.175699994         0.139599994
     0.004899979         0.824299991         0.860400021
     0.504899979         0.675700009         0.360400021
     0.495100021         0.324299991         0.639599979
     0.676199973         0.180099994         0.926699996
     0.323800027         0.819900036         0.073299997
     0.823800027         0.680099964         0.573300004
     0.176199973         0.319900006         0.426699996
