O5 V2
1.0
       11.5120000839         0.0000000000         0.0000000000
        0.0000000000         3.5639998913         0.0000000000
        0.0000000000         0.0000000000         4.3680000305
    V    O
    4   10
Direct
     0.101180002         0.250000000         0.891700029
     0.898819983         0.750000000         0.108299971
     0.398819983         0.250000000         0.891700029
     0.601180017         0.750000000         0.108299971
     0.104300000         0.250000000         0.531000018
     0.895699978         0.750000000         0.468999982
     0.395700008         0.250000000         0.531000018
     0.604300022         0.750000000         0.468999982
     0.931100011         0.250000000         0.003000000
     0.068899997         0.750000000         0.996999979
     0.568899989         0.250000000         0.003000000
     0.431100011         0.750000000         0.996999979
     0.250000000         0.250000000         0.001000000
     0.750000000         0.750000000         0.999000013
