Chromium(IV) oxide - prepared under pres
   1.00000000000000     
     4.4031493192733704    0.0000192250683597    0.0000000631018981
     0.0000185167585878    4.4031881415854306    0.0000000043004210
     0.0000000341690456    0.0000000001937789    2.9148530252194109
   Cr   O 
     2     4
Direct
  0.9999962804988840  0.0000193026537829  0.0000000612266717
  0.4999960038315621  0.4999824515251063  0.4999999187989630
  0.3028340887794627  0.3028279375685656  0.9999999581954242
  0.6971672819244148  0.6971759293512676  0.0000000376935247
  0.1971725748946511  0.8028205863020403  0.4999999856222956
  0.8028337700710253  0.1971737925992443  0.5000000384631207
 
  0.00000000E+00  0.00000000E+00  0.00000000E+00
  0.00000000E+00  0.00000000E+00  0.00000000E+00
  0.00000000E+00  0.00000000E+00  0.00000000E+00
  0.00000000E+00  0.00000000E+00  0.00000000E+00
  0.00000000E+00  0.00000000E+00  0.00000000E+00
  0.00000000E+00  0.00000000E+00  0.00000000E+00
