V1 O1                                   
   1.00000000000000     
     6.3115281176403917    0.0003323937790142    0.0000693138980254
     3.1560517729791711    5.4657781015593780    0.0000686050214170
     3.1558991493202071    1.8220594722271171    4.6877666778380771
   V    O 
     8     8
Direct
  0.0000001963292650  0.9999997596597795 -0.0000000735997460
  0.0000001684308432  0.5000000161961956 -0.0000000554749300
  0.4999999759037542  0.9999999098738394  0.9999999865511670
  0.4999999667448468  0.5000000323279965  0.0000000544678308
 -0.0000000078618104 -0.0000000822991923  0.4999999509168870
  0.0000000212838864  0.4999999546635582  0.5000000506639680
  0.5000001068431957  0.0000000053704573  0.5000000747391572
  0.4999998668237657  0.5000000293770898  0.5000001767274971
  0.2500000622881054  0.2500005834390192  0.2499990959753891
  0.2499998120250559  0.2499999591661362  0.7500001579774497
  0.2499999102598350  0.7500003247441179  0.2499997356835226
  0.2499998644893035  0.7500003529285413  0.7500000576729222
  0.7500001575290831  0.2499997120365835  0.2499999161547410
  0.7499997863718331  0.2499998281995205  0.7500003942825878
  0.7500001880207356  0.7500001282712238  0.2499995564894716
  0.7499999245182944  0.7499994860451336  0.7500009207720709
 
  0.00000000E+00  0.00000000E+00  0.00000000E+00
  0.00000000E+00  0.00000000E+00  0.00000000E+00
  0.00000000E+00  0.00000000E+00  0.00000000E+00
  0.00000000E+00  0.00000000E+00  0.00000000E+00
  0.00000000E+00  0.00000000E+00  0.00000000E+00
  0.00000000E+00  0.00000000E+00  0.00000000E+00
  0.00000000E+00  0.00000000E+00  0.00000000E+00
  0.00000000E+00  0.00000000E+00  0.00000000E+00
  0.00000000E+00  0.00000000E+00  0.00000000E+00
  0.00000000E+00  0.00000000E+00  0.00000000E+00
  0.00000000E+00  0.00000000E+00  0.00000000E+00
  0.00000000E+00  0.00000000E+00  0.00000000E+00
  0.00000000E+00  0.00000000E+00  0.00000000E+00
  0.00000000E+00  0.00000000E+00  0.00000000E+00
  0.00000000E+00  0.00000000E+00  0.00000000E+00
  0.00000000E+00  0.00000000E+00  0.00000000E+00
