Fe8 O8                                  
   1.00000000000000     
    -4.1235154242880316   -4.1494330650957627   -0.0988885320911962
    -4.2210358816945863    0.0010620291789364   -4.2208485539203293
     0.1789115960149252   -4.4276912403327371   -4.4027082379640747
   Fe   O 
     8     8
Direct
  0.0000338960907815  0.9999839330640908  0.9999943349230154
  0.0000130356370650  0.0000035858172165  0.4999834699169797
  0.0000291413411749  0.4999803551222808  0.0000063562307490
  0.0000088467404055  0.5000121108055368  0.4999790846300772
  0.5000128918156957  0.0000041327438447  0.9999846803525635
  0.5000301026527796  0.9999828115457179  0.5000023064188022
  0.5000095519754019  0.5000098860329558  0.9999795467450133
  0.5000335159666149  0.4999799529249663  0.5000005683390665
  0.2499420483089877  0.2497886353812403  0.2502372696528607
  0.2498049469658627  0.2501584371792548  0.7499391116156394
  0.2499694523781727  0.7502983935568830  0.2497369774223434
  0.2501940409431224  0.7497857361364438  0.7500663674128579
  0.7497926058253225  0.2501746048602014  0.2499689103509693
  0.7499593524365281  0.2497568509431972  0.7502587991390234
  0.7501848076848303  0.7498174103906607  0.2500981061495149
  0.7499817632372402  0.7502631634955019  0.7497641107005312
 
  0.00000000E+00  0.00000000E+00  0.00000000E+00
  0.00000000E+00  0.00000000E+00  0.00000000E+00
  0.00000000E+00  0.00000000E+00  0.00000000E+00
  0.00000000E+00  0.00000000E+00  0.00000000E+00
  0.00000000E+00  0.00000000E+00  0.00000000E+00
  0.00000000E+00  0.00000000E+00  0.00000000E+00
  0.00000000E+00  0.00000000E+00  0.00000000E+00
  0.00000000E+00  0.00000000E+00  0.00000000E+00
  0.00000000E+00  0.00000000E+00  0.00000000E+00
  0.00000000E+00  0.00000000E+00  0.00000000E+00
  0.00000000E+00  0.00000000E+00  0.00000000E+00
  0.00000000E+00  0.00000000E+00  0.00000000E+00
  0.00000000E+00  0.00000000E+00  0.00000000E+00
  0.00000000E+00  0.00000000E+00  0.00000000E+00
  0.00000000E+00  0.00000000E+00  0.00000000E+00
  0.00000000E+00  0.00000000E+00  0.00000000E+00
