Fe2 O3                                  
   1.00000000000000     
     5.0454719231114167    0.0000563607305543   -0.0000064030865413
    -2.5226871367681492    4.3695375732523889    0.0000080250997678
    -0.0000349779321613    0.0000304023426690   27.5191776349634232
   Fe   O 
    24    36
Direct
  0.9999968617519883  0.9999985612203588  0.1771156558892031
  0.0000022355844749  0.0000001454787011  0.8222487988642300
  0.9999984083927203  0.9999970584212434  0.5728805676808477
  0.0000004426618716  0.0000021484115109  0.9277449251348742
  0.6666690091014900  0.3333368795630491  0.8437217306869300
  0.6666681690790668  0.3333336860632272  0.4888617501894075
  0.6666683571473939  0.3333338178516314  0.2395704166692241
  0.6666674139661026  0.3333344891719037  0.5944578167323442
  0.3333336282149517  0.6666673322542138  0.5104307033929345
  0.3333361001907846  0.6666676334082950  0.1555489954395881
  0.3333370593137985  0.6666691099352917  0.9062692485046497
  0.3333327986314885  0.6666674522312590  0.2611325286568729
  0.9999968800440584  0.9999985823655209  0.6771156472349631
  0.0000022455670603  0.0000001425503413  0.3222487929329532
  0.9999984221760982  0.9999970555299313  0.0728805758901387
  0.0000004388272146  0.0000021439552995  0.4277449410539234
  0.6666690126769765  0.3333368752659922  0.3437217400808166
  0.6666681740615417  0.3333337009914317  0.9888617347399418
  0.6666683685751238  0.3333338318082255  0.7395704128367413
  0.6666674116726341  0.3333344885665852  0.0944578071435771
  0.3333336380029550  0.6666673406888179  0.0104306962737226
  0.3333360985922980  0.6666676359812129  0.6555490041250778
  0.3333370578711055  0.6666691189462171  0.4062692397361261
  0.3333327966238855  0.6666674577129967  0.7611325347599589
  0.3071308789572882  0.0000072962453075  0.1250079707553979
  0.3071309290257744  0.0000073453554066  0.6250079780235609
  0.6939710805527071  0.9999913372790061  0.3749922557544068
  0.6939710885281087  0.9999913531414109  0.8749922542031570
  0.9999909926950963  0.3071215760015136  0.1250081066649713
  0.9999909941086216  0.3071216101662344  0.6250081152109104
  0.0000110268533007  0.6939813063526401  0.3749924257947370
  0.0000110117211776  0.6939813088016962  0.8749924229212311
  0.6928766103828679  0.6928656260383192  0.1250082270704667
  0.6928766109975584  0.6928656066523686  0.6250082363570613
  0.3060220178775523  0.3060316047491511  0.3749922932261782
  0.3060219785099747  0.3060315650669381  0.8749922904828367
  0.9737948410508324  0.3333139977065471  0.2916664838114471
  0.9737947992986165  0.3333139736775408  0.7916664783694927
  0.3607220725198772  0.3333886694683130  0.0416664457622318
  0.3607221385075334  0.3333886801535044  0.5416664479217417
  0.6666839783623004  0.6404821043928450  0.2916661328290076
  0.6666840044385651  0.6404820996009377  0.7916661289315954
  0.6666084901237070  0.0273371108679825  0.0416668047013502
  0.6666084668441172  0.0273371387507098  0.5416668077682445
  0.3595136167921567  0.0261988873386159  0.2916661790609538
  0.3595135872037432  0.0261989236408482  0.7916661740102029
  0.9726672130554448  0.6392787683741403  0.0416663788224128
  0.9726671687142954  0.6392787021327493  0.5416663826973647
  0.6404837153053506  0.6666758274594713  0.4583287571674717
  0.6404837396345826  0.6666758911975990  0.9583287534031086
  0.0273509962517977  0.6666365628943254  0.2083435331638341
  0.0273509554886573  0.6666365778497365  0.7083435342573665
  0.3333218734947110  0.9738069766563981  0.4583287116279280
  0.3333218023617945  0.9738069411822465  0.9583287109062510
  0.3333631075023007  0.3607104202609506  0.2083438844376317
  0.3333631332991729  0.3607104036623383  0.7083438871900825
  0.0261893316719579  0.3595125633315703  0.4583287432975212
  0.0261893862153784  0.3595125766353959  0.9583287411619352
  0.6392878519973664  0.9726511631058656  0.2083435202616357
  0.6392879169286587  0.9726512514361332  0.7083435233252047
 
  0.00000000E+00  0.00000000E+00  0.00000000E+00
  0.00000000E+00  0.00000000E+00  0.00000000E+00
  0.00000000E+00  0.00000000E+00  0.00000000E+00
  0.00000000E+00  0.00000000E+00  0.00000000E+00
  0.00000000E+00  0.00000000E+00  0.00000000E+00
  0.00000000E+00  0.00000000E+00  0.00000000E+00
  0.00000000E+00  0.00000000E+00  0.00000000E+00
  0.00000000E+00  0.00000000E+00  0.00000000E+00
  0.00000000E+00  0.00000000E+00  0.00000000E+00
  0.00000000E+00  0.00000000E+00  0.00000000E+00
  0.00000000E+00  0.00000000E+00  0.00000000E+00
  0.00000000E+00  0.00000000E+00  0.00000000E+00
  0.00000000E+00  0.00000000E+00  0.00000000E+00
  0.00000000E+00  0.00000000E+00  0.00000000E+00
  0.00000000E+00  0.00000000E+00  0.00000000E+00
  0.00000000E+00  0.00000000E+00  0.00000000E+00
  0.00000000E+00  0.00000000E+00  0.00000000E+00
  0.00000000E+00  0.00000000E+00  0.00000000E+00
  0.00000000E+00  0.00000000E+00  0.00000000E+00
  0.00000000E+00  0.00000000E+00  0.00000000E+00
  0.00000000E+00  0.00000000E+00  0.00000000E+00
  0.00000000E+00  0.00000000E+00  0.00000000E+00
  0.00000000E+00  0.00000000E+00  0.00000000E+00
  0.00000000E+00  0.00000000E+00  0.00000000E+00
  0.00000000E+00  0.00000000E+00  0.00000000E+00
  0.00000000E+00  0.00000000E+00  0.00000000E+00
  0.00000000E+00  0.00000000E+00  0.00000000E+00
  0.00000000E+00  0.00000000E+00  0.00000000E+00
  0.00000000E+00  0.00000000E+00  0.00000000E+00
  0.00000000E+00  0.00000000E+00  0.00000000E+00
  0.00000000E+00  0.00000000E+00  0.00000000E+00
  0.00000000E+00  0.00000000E+00  0.00000000E+00
  0.00000000E+00  0.00000000E+00  0.00000000E+00
  0.00000000E+00  0.00000000E+00  0.00000000E+00
  0.00000000E+00  0.00000000E+00  0.00000000E+00
  0.00000000E+00  0.00000000E+00  0.00000000E+00
  0.00000000E+00  0.00000000E+00  0.00000000E+00
  0.00000000E+00  0.00000000E+00  0.00000000E+00
  0.00000000E+00  0.00000000E+00  0.00000000E+00
  0.00000000E+00  0.00000000E+00  0.00000000E+00
  0.00000000E+00  0.00000000E+00  0.00000000E+00
  0.00000000E+00  0.00000000E+00  0.00000000E+00
  0.00000000E+00  0.00000000E+00  0.00000000E+00
  0.00000000E+00  0.00000000E+00  0.00000000E+00
  0.00000000E+00  0.00000000E+00  0.00000000E+00
  0.00000000E+00  0.00000000E+00  0.00000000E+00
  0.00000000E+00  0.00000000E+00  0.00000000E+00
  0.00000000E+00  0.00000000E+00  0.00000000E+00
  0.00000000E+00  0.00000000E+00  0.00000000E+00
  0.00000000E+00  0.00000000E+00  0.00000000E+00
  0.00000000E+00  0.00000000E+00  0.00000000E+00
  0.00000000E+00  0.00000000E+00  0.00000000E+00
  0.00000000E+00  0.00000000E+00  0.00000000E+00
  0.00000000E+00  0.00000000E+00  0.00000000E+00
  0.00000000E+00  0.00000000E+00  0.00000000E+00
  0.00000000E+00  0.00000000E+00  0.00000000E+00
  0.00000000E+00  0.00000000E+00  0.00000000E+00
  0.00000000E+00  0.00000000E+00  0.00000000E+00
  0.00000000E+00  0.00000000E+00  0.00000000E+00
  0.00000000E+00  0.00000000E+00  0.00000000E+00
