Fe2 O3
1.0
        5.0380001068         0.0000000000         0.0000000000
       -2.5190000534         4.3630360768         0.0000000000
        0.0000000000         0.0000000000        27.5440006256
   Fe    O
   24   36
Direct
     0.000000000         0.000000000         0.177650005
     0.000000000         0.000000000         0.822350025
     0.000000000         0.000000000         0.572350025
     0.000000000         0.000000000         0.927649975
     0.666666687         0.333333343         0.844316661
     0.666666687         0.333333343         0.489016652
     0.666666687         0.333333343         0.239016667
     0.666666687         0.333333343         0.594316661
     0.333333343         0.666666687         0.510983348
     0.333333343         0.666666687         0.155683324
     0.333333343         0.666666687         0.905683339
     0.333333343         0.666666687         0.260983348
     0.000000000         0.000000000         0.677649975
     0.000000000         0.000000000         0.322349995
     0.000000000         0.000000000         0.072349995
     0.000000000         0.000000000         0.427650005
     0.666666687         0.333333343         0.344316661
     0.666666687         0.333333343         0.989016652
     0.666666687         0.333333343         0.739016652
     0.666666687         0.333333343         0.094316669
     0.333333343         0.666666687         0.010983338
     0.333333343         0.666666687         0.655683339
     0.333333343         0.666666687         0.405683339     
     0.333333343         0.666666687         0.760983348
     0.305900007         0.000000000         0.125000000
     0.305900007         0.000000000         0.625000000
     0.694100022         0.000000000         0.375000000
     0.694100022         0.000000000         0.875000000
     0.000000000         0.305900007         0.125000000
     0.000000000         0.305900007         0.625000000
     0.000000000         0.694100022         0.375000000
     0.000000000         0.694100022         0.875000000
     0.694100022         0.694100022         0.125000000
     0.694100022         0.694100022         0.625000000
     0.305900007         0.305900007         0.375000000
     0.305900007         0.305900007         0.875000000
     0.972566664         0.333333343         0.291666657
     0.972566664         0.333333343         0.791666627
     0.360766649         0.333333343         0.041666668
     0.360766649         0.333333343         0.541666687
     0.666666687         0.639233351         0.291666657
     0.666666687         0.639233351         0.791666627
     0.666666687         0.027433326         0.041666668
     0.666666687         0.027433326         0.541666687
     0.360766649         0.027433326         0.291666657
     0.360766649         0.027433326         0.791666627
     0.972566664         0.639233351         0.041666668
     0.972566664         0.639233351         0.541666687
     0.639233351         0.666666687         0.458333343
     0.639233351         0.666666687         0.958333373
     0.027433326         0.666666687         0.208333328
     0.027433326         0.666666687         0.708333313
     0.333333343         0.972566664         0.458333343
     0.333333343         0.972566664         0.958333373
     0.333333343         0.360766649         0.208333328
     0.333333343         0.360766649         0.708333313
     0.027433326         0.360766649         0.458333343
     0.027433326         0.360766649         0.958333373
     0.639233351         0.972566664         0.208333328
     0.639233351         0.972566664         0.708333313
