Chromium oxide                          
   1.00000000000000     
     5.3765528831944787    0.0134196738856565    0.0091587028275200
     3.0848588620721311    4.4035369807539739    0.0091555084185496
     3.0848508795463889    1.6103327446477975    4.0985513173648593
   Cr   O 
     4     6
Direct
  0.1529770421113597  0.1529756615653568  0.1529766966360171
  0.8470230688649352  0.8470223770771881  0.8470224254371601
  0.3470229053466980  0.3470224502410488  0.3470227793790812
  0.6529770698257380  0.6529756621952174  0.6529772154069491
  0.9427245236242143  0.5572751899065480  0.2500008680903605
  0.0572744355550938  0.4427256247782694  0.7500008635363713
  0.2500002599923690  0.9427273811885968  0.5572729268514607
  0.7500011696601732  0.0572732577216470  0.4427255602290074
  0.5572724192921683  0.2500014842655744  0.9427267063385258
  0.4427271097272580  0.7500009150605536  0.0572739620950742
 
  0.00000000E+00  0.00000000E+00  0.00000000E+00
  0.00000000E+00  0.00000000E+00  0.00000000E+00
  0.00000000E+00  0.00000000E+00  0.00000000E+00
  0.00000000E+00  0.00000000E+00  0.00000000E+00
  0.00000000E+00  0.00000000E+00  0.00000000E+00
  0.00000000E+00  0.00000000E+00  0.00000000E+00
  0.00000000E+00  0.00000000E+00  0.00000000E+00
  0.00000000E+00  0.00000000E+00  0.00000000E+00
  0.00000000E+00  0.00000000E+00  0.00000000E+00
  0.00000000E+00  0.00000000E+00  0.00000000E+00
