Chromium oxide
1.0
        5.3590002060         0.0000000000         0.0000000000
        3.0638280333         4.3967989482         0.0000000000
        3.0638280333         1.5993482820         4.0955983767
   Cr    O
    4    6
Direct
     0.151999995         0.151999995         0.151999995
     0.847999990         0.847999990         0.847999990
     0.347999990         0.347999990         0.347999990
     0.652000010         0.652000010         0.652000010
     0.943000019         0.556999981         0.250000000
     0.057000000         0.443000019         0.750000000
     0.250000000         0.943000019         0.556999981
     0.750000000         0.057000000         0.443000019
     0.556999981         0.250000000         0.943000019
     0.443000019         0.750000000         0.057000000
