Strontium iron(IV) oxide                
   1.00000000000000     
     3.8526298785534987    0.0000002330644718   -0.0000000833492968
     0.0000002331839231    3.8526311722100077   -0.0000000451680920
    -0.0000000845659925   -0.0000000462193352    3.8526149894277339
   Sr   Fe   O 
     1     1     3
Direct
  0.5000000117583686  0.4999999970923736  0.4999999957064780
  0.9999977812302059  0.9999999833629313  0.0000000482430099
  0.0000002847536573  0.0000000374425226  0.4999999760180088
  0.5000017961062396  0.0000000080150730  0.9999999616403484
  0.0000001261515214  0.4999999740870995  0.0000000183921549
 
  0.00000000E+00  0.00000000E+00  0.00000000E+00
  0.00000000E+00  0.00000000E+00  0.00000000E+00
  0.00000000E+00  0.00000000E+00  0.00000000E+00
  0.00000000E+00  0.00000000E+00  0.00000000E+00
  0.00000000E+00  0.00000000E+00  0.00000000E+00
