Co2 O2                                  
   1.00000000000000     
    -2.1273638617847594   -2.1274750892046392    0.0000918777864840
    -4.2407197506248915   -0.0138772461584945   -4.2431476594042064
     0.0002985296452191   -2.1278194877658096   -2.1290595672706734
   Co   O 
     2     2
Direct
  0.0000122849372062  0.9999986724426293  0.9999959221634853
  0.0000124244762532  0.4999986325995849  0.9999961425250135
  0.5000223118768261  0.2499490381050933  0.5000459433509263
  0.4999529787097146  0.7500536568526854  0.4999619919605749
 
  0.00000000E+00  0.00000000E+00  0.00000000E+00
  0.00000000E+00  0.00000000E+00  0.00000000E+00
  0.00000000E+00  0.00000000E+00  0.00000000E+00
  0.00000000E+00  0.00000000E+00  0.00000000E+00
