Vanadium(IV) oxide                      
   1.00000000000000     
     5.6911377900792361   -0.0000128351364644    0.0161238772505251
    -0.0000101228782506    4.5474956839545975   -0.0000217512588137
    -2.8603897534243683   -0.0000150544521725    4.5354596968593635
   V    O 
     4     8
Direct
  0.2467746127874874  0.9931870279922848  0.0131139739885218
  0.7530848853375975  0.0067776177766915  0.9869462126801770
  0.7530704959381889  0.4932153718527264  0.4869430372329079
  0.2467566242463798  0.5068022692131431  0.5131300208534501
  0.1019021999238077  0.2038228614652440  0.2054311278350784
  0.8982816030110148  0.7961629380899777  0.7945400803070222
  0.8981901723444393  0.7038587430905557  0.2945321588696453
  0.1018398922966832  0.2961195509997071  0.7054899307276193
  0.4003114713181650  0.6969654261975345  0.3032229840017934
  0.5997993469098319  0.3030855607462045  0.6966661892563857
  0.5997215361606868  0.1969130730116455  0.1966891987620960
  0.4002671897257346  0.8030895735642793  0.8032950924852927
 
  0.00000000E+00  0.00000000E+00  0.00000000E+00
  0.00000000E+00  0.00000000E+00  0.00000000E+00
  0.00000000E+00  0.00000000E+00  0.00000000E+00
  0.00000000E+00  0.00000000E+00  0.00000000E+00
  0.00000000E+00  0.00000000E+00  0.00000000E+00
  0.00000000E+00  0.00000000E+00  0.00000000E+00
  0.00000000E+00  0.00000000E+00  0.00000000E+00
  0.00000000E+00  0.00000000E+00  0.00000000E+00
  0.00000000E+00  0.00000000E+00  0.00000000E+00
  0.00000000E+00  0.00000000E+00  0.00000000E+00
  0.00000000E+00  0.00000000E+00  0.00000000E+00
  0.00000000E+00  0.00000000E+00  0.00000000E+00
