Co6 O8                                  
   1.00000000000000     
    -4.0254701229565741   -4.0259925764723503    0.0001746604146868
    -4.0254689891724453    0.0001565802913189   -4.0249691922699657
     0.0001430816910124   -4.0259789842595159   -4.0249513709761162
   Co   O 
     6     8
Direct
  0.7500329258197742  0.7500414124740613  0.7499637507086641
  0.0000373058637515  0.0000444601652226  0.9999629477418570
  0.8750175903178145  0.3750241325551052  0.3749280346942875
  0.3750248332396774  0.8750126596088288  0.3750294674658531
  0.3750698488549014  0.3749837208681518  0.8749668430608636
  0.3749816086479406  0.3750632192314142  0.3749905051684360
  0.5848845499167881  0.1382952970115568  0.1384773944415238
  0.1382959244588292  0.5848855101850595  0.1383436995495428
  0.1382993616288862  0.1384320203071843  0.5849136399740202
  0.1384390576204074  0.1383025054172997  0.1383593188983403
  0.1651238765562460  0.6116301475566708  0.6116680862934798
  0.6116316048461236  0.1651250035356482  0.6115684630403677
  0.6115318881105429  0.6116307836944356  0.1651587875693386
  0.6116296241183171  0.6115291273893610  0.6116690613934181
 
  0.00000000E+00  0.00000000E+00  0.00000000E+00
  0.00000000E+00  0.00000000E+00  0.00000000E+00
  0.00000000E+00  0.00000000E+00  0.00000000E+00
  0.00000000E+00  0.00000000E+00  0.00000000E+00
  0.00000000E+00  0.00000000E+00  0.00000000E+00
  0.00000000E+00  0.00000000E+00  0.00000000E+00
  0.00000000E+00  0.00000000E+00  0.00000000E+00
  0.00000000E+00  0.00000000E+00  0.00000000E+00
  0.00000000E+00  0.00000000E+00  0.00000000E+00
  0.00000000E+00  0.00000000E+00  0.00000000E+00
  0.00000000E+00  0.00000000E+00  0.00000000E+00
  0.00000000E+00  0.00000000E+00  0.00000000E+00
  0.00000000E+00  0.00000000E+00  0.00000000E+00
  0.00000000E+00  0.00000000E+00  0.00000000E+00
