Li3 Ni3 O6                              
   1.00000000000000     
    -4.6821561917006926    0.0002424605857777    1.6706145148753875
    -2.3408649776325903   -4.2725648860368377    0.8352781221920303
    -0.0167762410319284    0.0000341715760393    4.9863696851228720
   Li   Ni   O 
     3     3     6
Direct
  0.9920757216350933  0.9999900680154857  0.9989152570664607
  0.6667089309838182  0.6733748367866702  0.9993467403669221
  0.3400446912877765  0.3266152257331285  0.9993520544468462
  0.5070194006406529  0.9999904038881664  0.4988417880513463
  0.1611457670366354  0.6719177299527048  0.4994730572674423
  0.8330696590896863  0.3280996834913521  0.4994740079301423
  0.7475137246647465  0.9999859986826561  0.7507971399795865
  0.2199037874987173  0.9999879718697645  0.2800992100794916
  0.4333341321214603  0.6650511620374920  0.7087573557613223
  0.0982566126743422  0.3350574610683595  0.7087865091164958
  0.5917807206913548  0.3173699531761552  0.2780423455674753
  0.9092538516757089  0.6825595052980790  0.2779405343664606
 
  0.00000000E+00  0.00000000E+00  0.00000000E+00
  0.00000000E+00  0.00000000E+00  0.00000000E+00
  0.00000000E+00  0.00000000E+00  0.00000000E+00
  0.00000000E+00  0.00000000E+00  0.00000000E+00
  0.00000000E+00  0.00000000E+00  0.00000000E+00
  0.00000000E+00  0.00000000E+00  0.00000000E+00
  0.00000000E+00  0.00000000E+00  0.00000000E+00
  0.00000000E+00  0.00000000E+00  0.00000000E+00
  0.00000000E+00  0.00000000E+00  0.00000000E+00
  0.00000000E+00  0.00000000E+00  0.00000000E+00
  0.00000000E+00  0.00000000E+00  0.00000000E+00
  0.00000000E+00  0.00000000E+00  0.00000000E+00
