Co2 O2                                  
   1.00000000000000     
    -2.1216633276609222   -2.1207812473168071    0.0006922598841441
    -4.2338115441665689   -0.0062454778493771   -4.2361895920540551
    -0.0009891983734145   -2.1217227730127717   -2.1233389544538572
   Co   O 
     2     2
Direct
  0.9999377587482403  0.0000168789473455  0.9999683181566484
  0.9999360911227069  0.5000166495020437  0.9999679975087711
  0.5000444715208119  0.2500017118395433  0.5000313210217922
  0.5000816786082409  0.7499647597110745  0.5000323633127884
 
  0.00000000E+00  0.00000000E+00  0.00000000E+00
  0.00000000E+00  0.00000000E+00  0.00000000E+00
  0.00000000E+00  0.00000000E+00  0.00000000E+00
  0.00000000E+00  0.00000000E+00  0.00000000E+00
