Oxygen - beta                           
   1.00000000000000     
    18.0000000000000000    0.0000000000000000    0.0000000000000000
     0.0000000000000000   19.0000000000000000    0.0000000000000000
     0.0000000000000000    0.0000000000000000   20.0000000000000000
   O 
     2
Direct
  0.9996547830792721  0.0000000117033281  0.9999999825631107
  0.0675674389207259  0.9999999882966719  0.0000000174368893
 
  0.00000000E+00  0.00000000E+00  0.00000000E+00
  0.00000000E+00  0.00000000E+00  0.00000000E+00
