Oxygen - beta
1.0
        18.000000000         0.0000000000         0.0000000000
        0.0000000000         19.000000000         0.0000000000
        0.0000000000         0.0000000000         20.000000000
    O
    2
Direct
     0.000000000         0.000000000         0.0000000000
     0.067222222         0.000000000         0.0000000000
