Chromium(VI) oxide                      
   1.00000000000000     
     4.7511044386693673   -0.0000011281476826    0.0000007093749612
    -0.0000020589593080    8.5888746068958426    0.0000013962189764
     0.0000008561713727    0.0000009161059530    5.7159127254667359
   Cr   O 
     4    12
Direct
  0.0005998369686750  0.4018046912242568  0.2499999952248046
  0.0005992208691623  0.5981959286725385  0.7500000521166257
  0.5006210479407969  0.9018249236411222  0.2499999915789957
  0.5006211441669564  0.0981744329251271  0.7500000189367526
  0.1154868880232982  0.5000001078124541  0.0000001481948217
  0.1154872059687264  0.5000001474807050  0.4999998255480236
  0.6154777685544204  0.9999999331913187  0.0000000742672057
  0.6154779808255029  0.9999999014669498  0.4999999191990057
  0.1260416841303638  0.2315014155769930  0.2499999060525369
  0.1260417009203962  0.7684985901876473  0.7499999336070076
  0.6260027514960100  0.7315157193781658  0.2499999324093807
  0.6260022417448710  0.2684840102674784  0.7499999478959651
  0.6698662982721260  0.3909983365633138  0.2500001642080321
  0.6698665385846780  0.6090019004278346  0.7499999256292753
  0.1699038314262467  0.8909951563067651  0.2500001679788326
  0.1699037721077516  0.1090048188773309  0.7499999971527416
 
  0.00000000E+00  0.00000000E+00  0.00000000E+00
  0.00000000E+00  0.00000000E+00  0.00000000E+00
  0.00000000E+00  0.00000000E+00  0.00000000E+00
  0.00000000E+00  0.00000000E+00  0.00000000E+00
  0.00000000E+00  0.00000000E+00  0.00000000E+00
  0.00000000E+00  0.00000000E+00  0.00000000E+00
  0.00000000E+00  0.00000000E+00  0.00000000E+00
  0.00000000E+00  0.00000000E+00  0.00000000E+00
  0.00000000E+00  0.00000000E+00  0.00000000E+00
  0.00000000E+00  0.00000000E+00  0.00000000E+00
  0.00000000E+00  0.00000000E+00  0.00000000E+00
  0.00000000E+00  0.00000000E+00  0.00000000E+00
  0.00000000E+00  0.00000000E+00  0.00000000E+00
  0.00000000E+00  0.00000000E+00  0.00000000E+00
  0.00000000E+00  0.00000000E+00  0.00000000E+00
  0.00000000E+00  0.00000000E+00  0.00000000E+00
