Chromium(IV) oxide - prepared under pres
   1.00000000000000     
     4.4293962184710924    0.0000038685679490    0.0000031000604087
     0.0000038671656682    4.4293950475701251    0.0000015448491520
     0.0000020663213167    0.0000010310879604    2.9478464493925252
   Cr   O 
     2     4
Direct
 -0.0000002195038128 -0.0000004486033010  0.0000001595979724
  0.5000000002389602  0.5000002686474972  0.5000002576002572
  0.3018245352259052  0.3018247138278968  0.9999993129789354
  0.6981756013687074  0.6981753319359661  0.0000004000197624
  0.1982382015853083  0.8017623652467738  0.5000000561468182
  0.8017618810849388  0.1982377689451598  0.4999998136562543
 
  0.00000000E+00  0.00000000E+00  0.00000000E+00
  0.00000000E+00  0.00000000E+00  0.00000000E+00
  0.00000000E+00  0.00000000E+00  0.00000000E+00
  0.00000000E+00  0.00000000E+00  0.00000000E+00
  0.00000000E+00  0.00000000E+00  0.00000000E+00
  0.00000000E+00  0.00000000E+00  0.00000000E+00
