Mn8 O8                                  
   1.00000000000000     
    -4.4672479834780301   -4.4672667850554664    0.0001533214362608
    -4.4672479612497975    0.0001533420092564   -4.4672668028080755
    -0.0583073087902774   -4.4088058750502306   -4.4088059285476646
   Mn   O 
     8     8
Direct
  0.9999998269457606  0.0000005407454822  0.9999990607039067
  0.0000004098086777  0.9999995543404054  0.5000003482138453
  0.0000001460134911  0.5000006783971429  0.9999998505296048
  0.9999999127573673  0.5000003023958186  0.4999997253955613
  0.5000001970755008  0.9999996952098726  0.0000003212138466
  0.4999999685593508  0.9999994110028609  0.5000001839001555
  0.4999995599763878  0.5000004887754130  0.9999997230216167
  0.4999998994552612  0.5000003061313976  0.5000001450502864
  0.2500000497284844  0.2499999702480693  0.2499999365890702
  0.2499998959624179  0.2499997757070958  0.7500003168411240
  0.2500001112997552  0.7499998915208508  0.2500000240293474
  0.2500000082794998  0.7499998494113882  0.7500001268479153
  0.7500001596155172  0.2499998503572343  0.2499998343439316
  0.7499999388773730  0.2499998961087400  0.7500001942863079
  0.7499999625807661  0.7499999220683478  0.2500000027998937
  0.7499999530643962  0.7499998675798736  0.7500002062335938
 
  0.00000000E+00  0.00000000E+00  0.00000000E+00
  0.00000000E+00  0.00000000E+00  0.00000000E+00
  0.00000000E+00  0.00000000E+00  0.00000000E+00
  0.00000000E+00  0.00000000E+00  0.00000000E+00
  0.00000000E+00  0.00000000E+00  0.00000000E+00
  0.00000000E+00  0.00000000E+00  0.00000000E+00
  0.00000000E+00  0.00000000E+00  0.00000000E+00
  0.00000000E+00  0.00000000E+00  0.00000000E+00
  0.00000000E+00  0.00000000E+00  0.00000000E+00
  0.00000000E+00  0.00000000E+00  0.00000000E+00
  0.00000000E+00  0.00000000E+00  0.00000000E+00
  0.00000000E+00  0.00000000E+00  0.00000000E+00
  0.00000000E+00  0.00000000E+00  0.00000000E+00
  0.00000000E+00  0.00000000E+00  0.00000000E+00
  0.00000000E+00  0.00000000E+00  0.00000000E+00
  0.00000000E+00  0.00000000E+00  0.00000000E+00
