Copper(I) oxide                         
   1.00000000000000     
     4.2294343837587958    0.0000968649520981    0.0000060174091852
     0.0000968667287920    4.2294342139141454   -0.0000184145390800
     0.0000060159371809   -0.0000184148886420    4.2294338384329384
   Cu   O 
     4     2
Direct
  0.0000000914308984  0.0000000446126336  0.9999998206668366
  0.5000000289582331  0.4999999174288376  0.0000000114032446
  0.4999999651288718  0.0000000874823201  0.5000000839306225
  0.9999999411513230  0.4999999383257858  0.5000000347804061
  0.2499931759808405  0.2500027458663112  0.2500337713607266
  0.7500067973498190  0.7499972662841188  0.7499662778581495
 
  0.00000000E+00  0.00000000E+00  0.00000000E+00
  0.00000000E+00  0.00000000E+00  0.00000000E+00
  0.00000000E+00  0.00000000E+00  0.00000000E+00
  0.00000000E+00  0.00000000E+00  0.00000000E+00
  0.00000000E+00  0.00000000E+00  0.00000000E+00
  0.00000000E+00  0.00000000E+00  0.00000000E+00
