Copper(I) oxide
1.0
        4.2670001984         0.0000000000         0.0000000000
        0.0000000000         4.2670001984         0.0000000000
        0.0000000000         0.0000000000         4.2670001984
   Cu    O
    4    2
Direct
     0.000000000         0.000000000         0.000000000
     0.500000000         0.500000000         0.000000000
     0.500000000         0.000000000         0.500000000
     0.000000000         0.500000000         0.500000000
     0.250000000         0.250000000         0.250000000
     0.750000000         0.750000000         0.750000000
