Ni2 O2                                  
   1.00000000000000     
    -2.0838630056972591   -2.0833494099470919   -0.0003409323781813
    -4.1641748897426005   -0.0042008332611097   -4.1648019263378302
    -0.0003448863553769   -2.0833340791861983   -2.0841663215517716
   Ni   O 
     2     2
Direct
  0.9999544410975028  0.9999765905514285  0.0000445271299569
  0.9999540803125235  0.4999767149476155  0.0000447237236559
  0.5000472760177281  0.2500209117321672  0.4999570510471756
  0.5000442025722528  0.7500257827687890  0.4999536980992188
 
  0.00000000E+00  0.00000000E+00  0.00000000E+00
  0.00000000E+00  0.00000000E+00  0.00000000E+00
  0.00000000E+00  0.00000000E+00  0.00000000E+00
  0.00000000E+00  0.00000000E+00  0.00000000E+00
