Titanium(III) oxide                     
   1.00000000000000     
     5.4864687026073513   -0.0371186700604225   -0.0257024305181627
     2.9771185597219785    4.6087197618790601   -0.0256965071537851
     2.9771221610680865    1.6081031569976638    4.3190773888048888
   Ti   O 
     4     6
Direct
  0.3501703542811256  0.3500858607279724  0.3501243839660972
  0.6499199096921870  0.6498331974964628  0.6498687838678450
  0.1498468291033106  0.1498468412694365  0.1499276901762485
  0.8501055221816358  0.8500994016969230  0.8501741734670887
  0.5572392067466865  0.9427549989066861  0.2499400017808284
  0.4427647043095533  0.0572265981781612  0.7499427543582158
  0.2499733323101694  0.5572269243495640  0.9427662536766874
  0.7499713495504992  0.4427523975805343  0.0572427698772842
  0.9427690856702426  0.2500879818373960  0.5572416748049562
  0.0572397211545805  0.7500858129568613  0.4427715290247392
 
  0.00000000E+00  0.00000000E+00  0.00000000E+00
  0.00000000E+00  0.00000000E+00  0.00000000E+00
  0.00000000E+00  0.00000000E+00  0.00000000E+00
  0.00000000E+00  0.00000000E+00  0.00000000E+00
  0.00000000E+00  0.00000000E+00  0.00000000E+00
  0.00000000E+00  0.00000000E+00  0.00000000E+00
  0.00000000E+00  0.00000000E+00  0.00000000E+00
  0.00000000E+00  0.00000000E+00  0.00000000E+00
  0.00000000E+00  0.00000000E+00  0.00000000E+00
  0.00000000E+00  0.00000000E+00  0.00000000E+00
