Bismuth tetraoxovanadate                
   1.00000000000000     
     5.1266695483035258    0.0152896541646143   -0.0000000246707304
    -0.0164197251081123    5.1265753923875170   -0.0000000588422755
    -0.0000000665246963   -0.0000001251323634   11.5858944559903243
   Bi   V    O 
     4     4    16
Direct
  0.0000002521261138  0.2500002280494655  0.6250107765588098
  0.0000001967356980  0.7500001772291469  0.3749896972804407
  0.5000002679804325  0.7500001809161887  0.1250102657041197
  0.5000002359960760  0.2500001593174304  0.8749895746887830
  0.0000001200776083  0.2499999658357837  0.1248462156207708
  0.9999999510954325  0.7500000046925450  0.8751539678087141
  0.5000000795584967  0.7500000069344068  0.6248462253122895
  0.4999999800973782  0.2500000100848752  0.3751543938235216
  0.1404493202665265  0.4998720778157661  0.2041898868082015
  0.8595472876615133  0.5001229860553238  0.7958080308202682
  0.8595503065615091  0.0001277048880226  0.2041898140992728
  0.1404523153647048  0.9998768984123672  0.7958080048884355
  0.6404510906192726  0.9998746330784840  0.7041913943212421
  0.3595489726486036  0.0001263100738740  0.2958092212104901
  0.3595485777842313  0.5001252069966426  0.7041913116084828
  0.6404506374673531  0.4998735771501188  0.2958091961676672
  0.2499898058818388  0.3905756353797400  0.4543976315929044
  0.7500110536383815  0.6094236534134154  0.5456023303916666
  0.7500102463886265  0.1094243192373128  0.4543975379872478
  0.2499890865673748  0.8905763387327710  0.5456022639044562
  0.7499874849094539  0.8905773939292772  0.9543984143375681
  0.2500095100423252  0.1094251438232945  0.0456027930095146
  0.2500125651636651  0.6094225627654879  0.9543983054299332
  0.7499906553673767  0.3905748251882457  0.0456027016252136
 
  0.00000000E+00  0.00000000E+00  0.00000000E+00
  0.00000000E+00  0.00000000E+00  0.00000000E+00
  0.00000000E+00  0.00000000E+00  0.00000000E+00
  0.00000000E+00  0.00000000E+00  0.00000000E+00
  0.00000000E+00  0.00000000E+00  0.00000000E+00
  0.00000000E+00  0.00000000E+00  0.00000000E+00
  0.00000000E+00  0.00000000E+00  0.00000000E+00
  0.00000000E+00  0.00000000E+00  0.00000000E+00
  0.00000000E+00  0.00000000E+00  0.00000000E+00
  0.00000000E+00  0.00000000E+00  0.00000000E+00
  0.00000000E+00  0.00000000E+00  0.00000000E+00
  0.00000000E+00  0.00000000E+00  0.00000000E+00
  0.00000000E+00  0.00000000E+00  0.00000000E+00
  0.00000000E+00  0.00000000E+00  0.00000000E+00
  0.00000000E+00  0.00000000E+00  0.00000000E+00
  0.00000000E+00  0.00000000E+00  0.00000000E+00
  0.00000000E+00  0.00000000E+00  0.00000000E+00
  0.00000000E+00  0.00000000E+00  0.00000000E+00
  0.00000000E+00  0.00000000E+00  0.00000000E+00
  0.00000000E+00  0.00000000E+00  0.00000000E+00
  0.00000000E+00  0.00000000E+00  0.00000000E+00
  0.00000000E+00  0.00000000E+00  0.00000000E+00
  0.00000000E+00  0.00000000E+00  0.00000000E+00
  0.00000000E+00  0.00000000E+00  0.00000000E+00
