Chromium(VI) oxide                      
   1.00000000000000     
     4.6823911097018787    0.0000042227953816    0.0000002054104109
     0.0000077104854179    8.5190091678699780   -0.0000006437106447
     0.0000002756516539   -0.0000004290313969    5.7031969022549598
   Cr   O 
     4    12
Direct
  0.0012007488749634  0.4010328601241184  0.2499999746063232
  0.0012010587614554  0.5989639739862795  0.7499999353347996
  0.5012009719967432  0.9010345467210462  0.2500000933982340
  0.5011999360175144  0.0989691190385702  0.7500002195555039
  0.1175050585980465  0.4999994239479041 -0.0000012135383980
  0.1175052485775098  0.4999994494473561  0.5000010663807628
  0.6175062051783412  0.0000001780085639  0.0000022787183267
  0.6175062299986738  0.0000001330580713  0.4999977502655296
  0.1276376794210629  0.2291893219017311  0.2499999033759470
  0.1276364356556552  0.7708082695065760  0.7500001421767608
  0.6276368782455932  0.7291898468999729  0.2499998422983236
  0.6276350827279582  0.2708136689626293  0.7500001062432693
  0.6656572605169506  0.3903354648282531  0.2499999884711229
  0.6656583870043653  0.6096632328710843  0.7499999564915897
  0.1656577589509047  0.8903351691815719  0.2499999321649031
  0.1656549714742721  0.1096653555162663  0.7500000240570016
 
  0.00000000E+00  0.00000000E+00  0.00000000E+00
  0.00000000E+00  0.00000000E+00  0.00000000E+00
  0.00000000E+00  0.00000000E+00  0.00000000E+00
  0.00000000E+00  0.00000000E+00  0.00000000E+00
  0.00000000E+00  0.00000000E+00  0.00000000E+00
  0.00000000E+00  0.00000000E+00  0.00000000E+00
  0.00000000E+00  0.00000000E+00  0.00000000E+00
  0.00000000E+00  0.00000000E+00  0.00000000E+00
  0.00000000E+00  0.00000000E+00  0.00000000E+00
  0.00000000E+00  0.00000000E+00  0.00000000E+00
  0.00000000E+00  0.00000000E+00  0.00000000E+00
  0.00000000E+00  0.00000000E+00  0.00000000E+00
  0.00000000E+00  0.00000000E+00  0.00000000E+00
  0.00000000E+00  0.00000000E+00  0.00000000E+00
  0.00000000E+00  0.00000000E+00  0.00000000E+00
  0.00000000E+00  0.00000000E+00  0.00000000E+00
