Co6 O8                                  
   1.00000000000000     
    -4.0376308301381014   -4.0377452632329325   -0.0001112025120191
    -4.0376151509317326   -0.0001243147995713   -4.0376577148575006
    -0.0001195489148550   -4.0377336630663754   -4.0376606837669771
   Co   O 
     6     8
Direct
  0.7500163906975339  0.7500045850368072  0.7500078884483246
  0.9999904640554270  0.9999895753491688  0.9999935792798508
  0.8750064643500326  0.3750272888028596  0.3749814270177120
  0.3750267178265617  0.8750068849699714  0.3749862719525600
  0.3750185807125182  0.3750144610281378  0.8749939978564448
  0.3750135474961102  0.3750186430958307  0.3749757297093949
  0.5833953462088984  0.1388277400643701  0.1388932449718398
  0.1388261172885197  0.5833967259124286  0.1388771720483845
  0.1388573443609744  0.1388812030772323  0.5833920083924806
  0.1388814417017954  0.1388606576287700  0.1388647917703431
  0.1666175346193067  0.6111333243803672  0.6111377937762560
  0.6111319499661831  0.1666180752287276  0.6111155940246811
  0.6111014501210229  0.6111193637488281  0.1666135209913179
  0.6111166505951157  0.6111014716765009  0.6111669797604172
 
  0.00000000E+00  0.00000000E+00  0.00000000E+00
  0.00000000E+00  0.00000000E+00  0.00000000E+00
  0.00000000E+00  0.00000000E+00  0.00000000E+00
  0.00000000E+00  0.00000000E+00  0.00000000E+00
  0.00000000E+00  0.00000000E+00  0.00000000E+00
  0.00000000E+00  0.00000000E+00  0.00000000E+00
  0.00000000E+00  0.00000000E+00  0.00000000E+00
  0.00000000E+00  0.00000000E+00  0.00000000E+00
  0.00000000E+00  0.00000000E+00  0.00000000E+00
  0.00000000E+00  0.00000000E+00  0.00000000E+00
  0.00000000E+00  0.00000000E+00  0.00000000E+00
  0.00000000E+00  0.00000000E+00  0.00000000E+00
  0.00000000E+00  0.00000000E+00  0.00000000E+00
  0.00000000E+00  0.00000000E+00  0.00000000E+00
