Co6 O8
1.0
-4.036000 -4.036000 0.000000
-4.036000 0.000000 -4.036000
-0.000000 -4.036000 -4.036000
Co O
6 8
direct
0.750000 0.750000 0.750000 Co2+
0.000000 0.000000 0.000000 Co2+
0.875000 0.375000 0.375000 Co3+
0.375000 0.875000 0.375000 Co3+
0.375000 0.375000 0.875000 Co3+
0.375000 0.375000 0.375000 Co3+
0.583000 0.139000 0.139000 O2-
0.139000 0.583000 0.139000 O2-
0.139000 0.139000 0.583000 O2-
0.139000 0.139000 0.139000 O2-
0.167000 0.611000 0.611000 O2-
0.611000 0.167000 0.611000 O2-
0.611000 0.611000 0.167000 O2-
0.611000 0.611000 0.611000 O2-
