Co2 O2                                  
   1.00000000000000     
    -2.1348108712591998   -2.1328839296095636    0.0014209829311160
    -4.2462302705683150   -0.0176460131199438   -4.2461797766217986
    -0.0009771843017797   -2.1332679653158970   -2.1347360853912734
   Co   O 
     2     2
Direct
 -0.0000217176436162 -0.0000195930121957 -0.0000235407285705
 -0.0001273375638762  0.5000443278812489 -0.0000499626490276
  0.5000994186672697  0.2500057392879842  0.4999606105527727
  0.5000496365402228  0.7499695258429627  0.5001128928248254
 
  0.00000000E+00  0.00000000E+00  0.00000000E+00
  0.00000000E+00  0.00000000E+00  0.00000000E+00
  0.00000000E+00  0.00000000E+00  0.00000000E+00
  0.00000000E+00  0.00000000E+00  0.00000000E+00
