Titanium(III) oxide                     
   1.00000000000000     
     5.4508112689924184    0.0457444299687818    0.0313245730085512
     3.0268469031194516    4.5334296556283018    0.0313318373660814
     3.0269860657694374    1.6350342193238230    4.2282818581623847
   Ti   O 
     4     6
Direct
  0.3446386016182945  0.3446036303476874  0.3446435332731999
  0.6554022325709136  0.6553434236935788  0.6553515715243827
  0.1553729506162648  0.1553751384520959  0.1553573338549926
  0.8446248205007896  0.8446197488055165  0.8446424929142228
  0.5642891224437522  0.9357047654207414  0.2500177186963058
  0.4356906750063537  0.0643072743898701  0.7500190828790879
  0.2500054710122960  0.5642967268405291  0.9356890486555066
  0.7500031617601117  0.4357351624875069  0.0642618258074099
  0.9357045955804563  0.2500054312979124  0.5642904112473504
  0.0642683838907794  0.7500087132645592  0.4357269961475250
 
  0.00000000E+00  0.00000000E+00  0.00000000E+00
  0.00000000E+00  0.00000000E+00  0.00000000E+00
  0.00000000E+00  0.00000000E+00  0.00000000E+00
  0.00000000E+00  0.00000000E+00  0.00000000E+00
  0.00000000E+00  0.00000000E+00  0.00000000E+00
  0.00000000E+00  0.00000000E+00  0.00000000E+00
  0.00000000E+00  0.00000000E+00  0.00000000E+00
  0.00000000E+00  0.00000000E+00  0.00000000E+00
  0.00000000E+00  0.00000000E+00  0.00000000E+00
  0.00000000E+00  0.00000000E+00  0.00000000E+00
