Mn8 O8                                  
   1.00000000000000     
    -4.4647724116844172   -4.4649524550719129    0.0001689453941227
    -4.4647728179465309    0.0001693483156826   -4.4649520409625909
    -0.0530400360110923   -4.4117418493969067   -4.4117410187260129
   Mn   O 
     8     8
Direct
  0.0000004053370617  0.0000001008351447  0.9999998724847288
  0.9999999810145965  0.9999999716490819  0.5000000774632269
  0.9999999696803457  0.5000001117983359  0.0000000355008112
  0.9999999442765457  0.5000001101274520  0.4999999342436325
  0.5000000297353324  0.9999999535577899  0.0000000328642855
  0.4999999978167011  0.9999999941532991  0.4999999687953220
  0.4999998993842141  0.5000000747984998  0.9999999948290821
  0.4999999949735070  0.4999999405261448  0.5000000397214350
  0.2499999956302048  0.2500000423877538  0.2499999367916459
  0.2499998846268880  0.2499999190024553  0.7500001790145916
  0.2500001325436045  0.7499998932152110  0.2500000742305630
  0.2500000815466734  0.7499998744230822  0.7499999254898384
  0.7500001424682452  0.2499999325357720  0.2499998502494947
  0.7499998006613566  0.2500001360090849  0.7499999351300417
  0.7499998400627632  0.7499999374720261  0.2500000659001245
  0.7499999002419528  0.7500000075088593  0.7500000772911832
 
  0.00000000E+00  0.00000000E+00  0.00000000E+00
  0.00000000E+00  0.00000000E+00  0.00000000E+00
  0.00000000E+00  0.00000000E+00  0.00000000E+00
  0.00000000E+00  0.00000000E+00  0.00000000E+00
  0.00000000E+00  0.00000000E+00  0.00000000E+00
  0.00000000E+00  0.00000000E+00  0.00000000E+00
  0.00000000E+00  0.00000000E+00  0.00000000E+00
  0.00000000E+00  0.00000000E+00  0.00000000E+00
  0.00000000E+00  0.00000000E+00  0.00000000E+00
  0.00000000E+00  0.00000000E+00  0.00000000E+00
  0.00000000E+00  0.00000000E+00  0.00000000E+00
  0.00000000E+00  0.00000000E+00  0.00000000E+00
  0.00000000E+00  0.00000000E+00  0.00000000E+00
  0.00000000E+00  0.00000000E+00  0.00000000E+00
  0.00000000E+00  0.00000000E+00  0.00000000E+00
  0.00000000E+00  0.00000000E+00  0.00000000E+00
