Li3 Ni3 O6                              
   1.00000000000000     
    -4.7737730848579689    0.0000326151551907    1.8036615819535926
    -2.3868188828476606   -4.1528704878435470    0.9018342860979405
    -0.1328945994357426   -0.0000405502122638    5.0722903429506827
   Li   Ni   O 
     3     3     6
Direct
  0.0000286668848156  0.9999990383062384  0.0000491801993744
  0.6663857106913801  0.6666609877430280  0.9999524394831850
  0.3330461793475157  0.3333405219412964  0.9999604328582684
  0.5001221639731173  0.9999978289661487  0.4999715324903677
  0.1667112328630612  0.6666208857228463  0.5000483117282907
  0.8333541316710757  0.3333820881811161  0.4999206628809371
  0.7733827527462951  0.9999951159850354  0.7260457774553639
  0.2266859482550250  0.0000061400383861  0.2739975980779195
  0.4401372853885970  0.6666663915258996  0.7260145165490035
  0.1067797505104098  0.3333361803694220  0.7260148582046855
  0.5600476827688113  0.3333567420552028  0.2739266575339843
  0.8934254948998890  0.6666380791653804  0.2739240325386258
 
  0.00000000E+00  0.00000000E+00  0.00000000E+00
  0.00000000E+00  0.00000000E+00  0.00000000E+00
  0.00000000E+00  0.00000000E+00  0.00000000E+00
  0.00000000E+00  0.00000000E+00  0.00000000E+00
  0.00000000E+00  0.00000000E+00  0.00000000E+00
  0.00000000E+00  0.00000000E+00  0.00000000E+00
  0.00000000E+00  0.00000000E+00  0.00000000E+00
  0.00000000E+00  0.00000000E+00  0.00000000E+00
  0.00000000E+00  0.00000000E+00  0.00000000E+00
  0.00000000E+00  0.00000000E+00  0.00000000E+00
  0.00000000E+00  0.00000000E+00  0.00000000E+00
  0.00000000E+00  0.00000000E+00  0.00000000E+00
