Li3 Ni3 O6
1.0
-4.720016 0.000000 1.664773
-2.360008 -4.335000 0.832387
0.000000 0.000000 5.016000
Li Ni O
3 3 6
direct
0.000000 0.000000 0.000000 Li+
0.666683 0.666633 1.000000 Li+
0.333317 0.333367 1.000000 Li+
0.500000 0.000000 0.500000 Ni3+
0.166683 0.666633 0.500000 Ni3+
0.833317 0.333367 0.500000 Ni3+
0.746604 0.000000 0.760188 O2-
0.227139 0.000000 0.266712 O2-
0.426766 0.666633 0.719751 O2-
0.093400 0.333367 0.719751 O2-
0.595102 0.315994 0.266712 O2-
0.911096 0.684006 0.266712 O2-
