cobalt oxide                            
   1.00000000000000     
     2.8068265484755153   -0.0001290417996125    0.0000191289653569
    -1.4035250326352073    2.4304648084739564   -0.0000511353153160
     0.0001128175165712   -0.0002631918728551   13.6752467723199729
   Co   O 
     3     6
Direct
  0.9999996555578008  0.9999991551363934  0.5000075807160513
  0.6666669940558307  0.3333342393164216  0.8333352383272441
  0.3333327965215958  0.6666670413987106  0.1666544970217956
  0.0000063165095980  0.9999465699042673  0.2350220248878543
  0.0000018662989163  0.0000294698084815  0.7649737237599084
  0.6666538527278902  0.3332996982535548  0.5683673705169170
  0.6666650324682948  0.3333854427960148  0.0983053578943682
  0.3333302724392979  0.6666378983965089  0.9016954465089171
  0.3333433034207829  0.6667005749896546  0.4316387373669386
 
  0.00000000E+00  0.00000000E+00  0.00000000E+00
  0.00000000E+00  0.00000000E+00  0.00000000E+00
  0.00000000E+00  0.00000000E+00  0.00000000E+00
  0.00000000E+00  0.00000000E+00  0.00000000E+00
  0.00000000E+00  0.00000000E+00  0.00000000E+00
  0.00000000E+00  0.00000000E+00  0.00000000E+00
  0.00000000E+00  0.00000000E+00  0.00000000E+00
  0.00000000E+00  0.00000000E+00  0.00000000E+00
  0.00000000E+00  0.00000000E+00  0.00000000E+00
