Dilithium oxide                         
   1.00000000000000     
     4.5842956927345568    0.0000000032293779   -0.0000000769226196
     0.0000000031876188    4.5842956730666149    0.0000000215114341
    -0.0000000768753495    0.0000000215077328    4.5842956520578184
   Li   O 
     8     4
Direct
  0.2499998808159916  0.2499998974847912  0.2500000003870113
  0.7500001235459663  0.7500001002043035  0.7499999988816484
  0.7500001231882649  0.7500000993679024  0.2500000003295710
  0.2499998789673299  0.2499998983310121  0.7499999988857340
  0.7500001180808624  0.2499999011695735  0.7500000024468179
  0.2499998768849352  0.7500000996383420  0.2499999989719441
  0.2499998764646136  0.7500000972450778  0.7499999966734237
  0.7500001204722224  0.2499999027355315  0.2500000009323671
  0.0000000163513789  0.9999999726758872  0.0000000086070528
  0.0000000022535644  0.5000000328721939  0.4999999983466097
  0.4999999877940695  0.0000000154234954  0.4999999933169335
  0.4999999951808078  0.4999999828518895  0.0000000022208795
 
  0.00000000E+00  0.00000000E+00  0.00000000E+00
  0.00000000E+00  0.00000000E+00  0.00000000E+00
  0.00000000E+00  0.00000000E+00  0.00000000E+00
  0.00000000E+00  0.00000000E+00  0.00000000E+00
  0.00000000E+00  0.00000000E+00  0.00000000E+00
  0.00000000E+00  0.00000000E+00  0.00000000E+00
  0.00000000E+00  0.00000000E+00  0.00000000E+00
  0.00000000E+00  0.00000000E+00  0.00000000E+00
  0.00000000E+00  0.00000000E+00  0.00000000E+00
  0.00000000E+00  0.00000000E+00  0.00000000E+00
  0.00000000E+00  0.00000000E+00  0.00000000E+00
  0.00000000E+00  0.00000000E+00  0.00000000E+00
