Dilithium oxide                         
   1.00000000000000     
     4.5842956927345568    0.0000000032293779   -0.0000000769226196
     0.0000000031876188    4.5842956730666149    0.0000000215114341
    -0.0000000768753495    0.0000000215077328    4.5842956520578184
   Li   O 
     8     4
Direct
  0.2499998808159926  0.2499998974847878  0.2500000003870126
  0.7500001235459640  0.7500001002043030  0.7499999988816468
  0.7500001231882621  0.7500000993679018  0.2500000003295710
  0.2499998789673281  0.2499998983310155  0.7499999988857355
  0.7500001180808654  0.2499999011695725  0.7500000024468176
  0.2499998768849351  0.7500000996383400  0.2499999989719473
  0.2499998764646137  0.7500000972450800  0.7499999966734269
  0.7500001204722239  0.2499999027355327  0.2500000009323676
  0.0000000163513760 -0.0000000273241149  0.0000000086070495
  0.0000000022535655  0.5000000328721946  0.4999999983466128
  0.4999999877940677  0.0000000154234988  0.4999999933169364
  0.4999999951808060  0.4999999828518881  0.0000000022208760
 
  0.00000000E+00  0.00000000E+00  0.00000000E+00
  0.00000000E+00  0.00000000E+00  0.00000000E+00
  0.00000000E+00  0.00000000E+00  0.00000000E+00
  0.00000000E+00  0.00000000E+00  0.00000000E+00
  0.00000000E+00  0.00000000E+00  0.00000000E+00
  0.00000000E+00  0.00000000E+00  0.00000000E+00
  0.00000000E+00  0.00000000E+00  0.00000000E+00
  0.00000000E+00  0.00000000E+00  0.00000000E+00
  0.00000000E+00  0.00000000E+00  0.00000000E+00
  0.00000000E+00  0.00000000E+00  0.00000000E+00
  0.00000000E+00  0.00000000E+00  0.00000000E+00
  0.00000000E+00  0.00000000E+00  0.00000000E+00
