Li3 Ni3 O6                              
   1.00000000000000     
    -4.7840424651627211   -0.0014806596707247    1.7821679815967262
    -2.3934847076132044   -4.1435429728719617    0.8906476574166240
    -0.1657280032061881    0.0005534797878751    5.0578588312992947
   Li   Ni   O 
     3     3     6
Direct
  0.0004362628820394  0.0004130755551339  0.0000958430004258
  0.6674520385743001  0.6669775720732385  0.9994958129077796
  0.3338552278783808  0.3336082696574861  0.0001035619935460
  0.4992631832469543  0.9995733080983339  0.4999438188171002
  0.1672885938251870  0.6666210445877017  0.4999636233478016
  0.8324395161805325  0.3332953513116937  0.4998436601022517
  0.7733011359508034  0.0000791745872166  0.7257832966007202
  0.2268340429130515  0.9999049195665017  0.2740457115319380
  0.4394274375891039  0.6666315919388736  0.7262802776875451
  0.1066724831397093  0.3334222871697725  0.7257083501869107
  0.5601751729867752  0.3329870105581107  0.2741212394396600
  0.8929619048331836  0.6664863948959373  0.2744408043843481
 
  0.00000000E+00  0.00000000E+00  0.00000000E+00
  0.00000000E+00  0.00000000E+00  0.00000000E+00
  0.00000000E+00  0.00000000E+00  0.00000000E+00
  0.00000000E+00  0.00000000E+00  0.00000000E+00
  0.00000000E+00  0.00000000E+00  0.00000000E+00
  0.00000000E+00  0.00000000E+00  0.00000000E+00
  0.00000000E+00  0.00000000E+00  0.00000000E+00
  0.00000000E+00  0.00000000E+00  0.00000000E+00
  0.00000000E+00  0.00000000E+00  0.00000000E+00
  0.00000000E+00  0.00000000E+00  0.00000000E+00
  0.00000000E+00  0.00000000E+00  0.00000000E+00
  0.00000000E+00  0.00000000E+00  0.00000000E+00
