Titanium oxide                          
   1.00000000000000     
     4.6023609217916075    0.0000012097415971   -0.0000002815400446
     0.0000012094647948    4.6023608871600112    0.0000001998030077
    -0.0000001814673933    0.0000001287800222    2.9605316208375161
   Ti   O 
     2     4
Direct
  0.0000062914039489  0.9999893445819978  0.9999992602745138
  0.4999936763055217  0.5000121784421196  0.4999996875280672
  0.3043919886921032  0.3043928031175795  0.0000002285131657
  0.6956069909443059  0.6956078010189586  0.0000002290130965
  0.1956074231434926  0.8043920339103465  0.5000002449776630
  0.8043936295106278  0.1956058389289979  0.5000003496935008
 
  0.00000000E+00  0.00000000E+00  0.00000000E+00
  0.00000000E+00  0.00000000E+00  0.00000000E+00
  0.00000000E+00  0.00000000E+00  0.00000000E+00
  0.00000000E+00  0.00000000E+00  0.00000000E+00
  0.00000000E+00  0.00000000E+00  0.00000000E+00
  0.00000000E+00  0.00000000E+00  0.00000000E+00
