O3 V2                                   
   1.00000000000000     
     7.2904665489732317   -0.0000063522224072    0.0264542141910562
    -0.0000042760499044    5.0944880011287426    0.0000056592748983
    -0.6355130343983469    0.0000067143321794    5.5213578187647387
   V    O 
     8    12
Direct
  0.3458632953547973  0.0027970251949640  0.2975451357208926
  0.6541304435423310  0.9972032939578338  0.7024475500281544
  0.1541878035738713  0.0027903482726705  0.7024483173675480
  0.8458138984823302  0.9972091829761301  0.2975365291305201
  0.8458128421324413  0.5027877028979710  0.7975451059909255
  0.1541919804467783  0.4972062422758095  0.2024677580548379
  0.6541365750871271  0.5027966466647527  0.2024568756160399
  0.3458669199569898  0.4972066744216627  0.7975479919789834
  0.4028178033609616  0.8490114124946733  0.6451649766774799
  0.5971744412297820  0.1509938925451964  0.3548194529405710
  0.0972116885409030  0.8490074233414560  0.3548218123160072
  0.9027915116956339  0.1509920044989400  0.6451706847537815
  0.9027920343391764  0.3490108434541291  0.1451806182425638
  0.0972058371487599  0.6509977482103725  0.8548404039300217
  0.5971813745725186  0.3490072964579494  0.8548398605358060
  0.4028212021553744  0.6509944196323658  0.1451815759221199
  0.2500162534012611  0.3181893804825471  0.4999894906013437
  0.7499797196559764  0.6818048996178482  0.4999751339867826
  0.7499824620547252  0.8181860114176738  0.0000014807038129
  0.2500219132682682  0.1818075691850556  0.0000192455018153
 
  0.00000000E+00  0.00000000E+00  0.00000000E+00
  0.00000000E+00  0.00000000E+00  0.00000000E+00
  0.00000000E+00  0.00000000E+00  0.00000000E+00
  0.00000000E+00  0.00000000E+00  0.00000000E+00
  0.00000000E+00  0.00000000E+00  0.00000000E+00
  0.00000000E+00  0.00000000E+00  0.00000000E+00
  0.00000000E+00  0.00000000E+00  0.00000000E+00
  0.00000000E+00  0.00000000E+00  0.00000000E+00
  0.00000000E+00  0.00000000E+00  0.00000000E+00
  0.00000000E+00  0.00000000E+00  0.00000000E+00
  0.00000000E+00  0.00000000E+00  0.00000000E+00
  0.00000000E+00  0.00000000E+00  0.00000000E+00
  0.00000000E+00  0.00000000E+00  0.00000000E+00
  0.00000000E+00  0.00000000E+00  0.00000000E+00
  0.00000000E+00  0.00000000E+00  0.00000000E+00
  0.00000000E+00  0.00000000E+00  0.00000000E+00
  0.00000000E+00  0.00000000E+00  0.00000000E+00
  0.00000000E+00  0.00000000E+00  0.00000000E+00
  0.00000000E+00  0.00000000E+00  0.00000000E+00
  0.00000000E+00  0.00000000E+00  0.00000000E+00
