Mn6 O8                                  
   1.00000000000000     
     5.7473768732731889    0.0129793093840782   -0.0203843724421836
    -2.8613272708391517    5.4898744209468759   -0.0024617085531298
    -0.0251685075861077   -2.9934531651897207    4.9062900793958564
   Mn   O 
     6     8
Direct
  0.1229358614587904  0.7511340080361819  0.3769413398788294
  0.6217999331509477  0.7489042482705491  0.3758152842206538
  0.6258220803686555  0.2488942404561073  0.3717771544762523
  0.6269642465053581  0.2511509351733157  0.8729205073700268
  0.2506661155975106  0.4998964501469338  0.7506554244862989
  0.0006737813878163 -0.0000917299380045  0.0006654491310095
  0.8564333774721472  0.2643419311842999  0.1307448325654013
  0.4106299656029799  0.2637826376571291  0.1308442704682939
  0.8421068083079275  0.2356848736128772  0.6164347632437637
  0.3969161262382465  0.2362555395691001  0.6170940769496988
  0.8664072551460799  0.7356999123694490  0.5921170181235856
  0.8670653495185685  0.7362106650487238  0.1468977122429853
  0.3807563150294183  0.7644008421668987  0.6064773862626751
  0.3808227842155540  0.7637354462464382  0.1606147805805259
 
  0.00000000E+00  0.00000000E+00  0.00000000E+00
  0.00000000E+00  0.00000000E+00  0.00000000E+00
  0.00000000E+00  0.00000000E+00  0.00000000E+00
  0.00000000E+00  0.00000000E+00  0.00000000E+00
  0.00000000E+00  0.00000000E+00  0.00000000E+00
  0.00000000E+00  0.00000000E+00  0.00000000E+00
  0.00000000E+00  0.00000000E+00  0.00000000E+00
  0.00000000E+00  0.00000000E+00  0.00000000E+00
  0.00000000E+00  0.00000000E+00  0.00000000E+00
  0.00000000E+00  0.00000000E+00  0.00000000E+00
  0.00000000E+00  0.00000000E+00  0.00000000E+00
  0.00000000E+00  0.00000000E+00  0.00000000E+00
  0.00000000E+00  0.00000000E+00  0.00000000E+00
  0.00000000E+00  0.00000000E+00  0.00000000E+00
