Ni2 O2                                  
   1.00000000000000     
    -2.0786357416969823   -2.0786266280175347    0.0000234728352826
    -4.1532469853101261   -0.0039777658304695   -4.1534680551652157
     0.0000218425302725   -2.0786245336805029   -2.0787458304126814
   Ni   O 
     2     2
Direct
  0.9999906185469692  0.9999949200690346  0.0000098298761639
  0.9999904881902624  0.4999948256647663  0.0000100086396104
  0.4999944430248677  0.2500276128383584  0.4999751164146823
  0.5000244502379008  0.7499826414278336  0.5000050450695435
 
  0.00000000E+00  0.00000000E+00  0.00000000E+00
  0.00000000E+00  0.00000000E+00  0.00000000E+00
  0.00000000E+00  0.00000000E+00  0.00000000E+00
  0.00000000E+00  0.00000000E+00  0.00000000E+00
