Bismuth tetraoxovanadate                
   1.00000000000000     
     5.1359945148123760    0.0158610903789759    0.0000002870125618
    -0.0160836770069958    5.1288442831849936    0.0000011227365308
     0.0000006516231669    0.0000025149202606   11.5823696319979312
   Bi   V    O 
     4     4    16
Direct
  0.0000000264005280  0.2500003203186054  0.6253478697669621
  0.9999999484048629  0.7500003372473643  0.3746532536071214
  0.5000000239196467  0.7500003789336844  0.1253471860325988
  0.5000002612978420  0.2500007692679134  0.8746531169619800
  0.0000000516903853  0.2500002972291711  0.1252804804701171
  0.0000009127408589  0.7500001141516677  0.8747181015596937
  0.5000001296794991  0.7499997052290439  0.6252820949877389
  0.5000000028702658  0.2500000865684981  0.3747185341565142
  0.1418041462285942  0.5003879405344236  0.2046691492578532
  0.8581957912816378  0.4996135055109150  0.7953315939625725
  0.8581955665056071  0.9996127051654256  0.2046691488957748
  0.1418040539023551  0.0003868702801810  0.7953313623729557
  0.6418051007787895  0.0003864648969980  0.7046686229393018
  0.3581948290085393  0.9996123796479495  0.2953307669812801
  0.3581944854560888  0.4996134574726696  0.7046690534165307
  0.6418045407738973  0.5003880465496380  0.2953306884469882
  0.2504773238829330  0.3909392463078305  0.4542370635528883
  0.7495198434065742  0.6090585896050911  0.5457638058466614
  0.7495209644511505  0.1090584228370446  0.4542371478558351
  0.2504782533277208  0.8909377158233980  0.5457640531076322
  0.7504795409441769  0.8909377519792230  0.9542360723119501
  0.2495256892105715  0.1090612860484441  0.0457624424111245
  0.2495240672190917  0.6090642392965222  0.9542360326084989
  0.7504744466183837  0.3909393690982910  0.0457623134894334
 
  0.00000000E+00  0.00000000E+00  0.00000000E+00
  0.00000000E+00  0.00000000E+00  0.00000000E+00
  0.00000000E+00  0.00000000E+00  0.00000000E+00
  0.00000000E+00  0.00000000E+00  0.00000000E+00
  0.00000000E+00  0.00000000E+00  0.00000000E+00
  0.00000000E+00  0.00000000E+00  0.00000000E+00
  0.00000000E+00  0.00000000E+00  0.00000000E+00
  0.00000000E+00  0.00000000E+00  0.00000000E+00
  0.00000000E+00  0.00000000E+00  0.00000000E+00
  0.00000000E+00  0.00000000E+00  0.00000000E+00
  0.00000000E+00  0.00000000E+00  0.00000000E+00
  0.00000000E+00  0.00000000E+00  0.00000000E+00
  0.00000000E+00  0.00000000E+00  0.00000000E+00
  0.00000000E+00  0.00000000E+00  0.00000000E+00
  0.00000000E+00  0.00000000E+00  0.00000000E+00
  0.00000000E+00  0.00000000E+00  0.00000000E+00
  0.00000000E+00  0.00000000E+00  0.00000000E+00
  0.00000000E+00  0.00000000E+00  0.00000000E+00
  0.00000000E+00  0.00000000E+00  0.00000000E+00
  0.00000000E+00  0.00000000E+00  0.00000000E+00
  0.00000000E+00  0.00000000E+00  0.00000000E+00
  0.00000000E+00  0.00000000E+00  0.00000000E+00
  0.00000000E+00  0.00000000E+00  0.00000000E+00
  0.00000000E+00  0.00000000E+00  0.00000000E+00
