Bismuth tetraoxovanadate
1.0
        5.1907000542         0.0000000000         0.0000000000
       -0.0319887960         5.0910993786         0.0000000000
        0.0000000000         0.0000000000        11.6941003799
   Bi    V    O
    4    4   16
Direct
     0.000000000         0.250000000         0.633400023
     0.000000000         0.750000000         0.366599977
     0.500000000         0.750000000         0.133400023
     0.500000000         0.250000000         0.866599977
     0.000000000         0.250000000         0.129800007
     0.000000000         0.750000000         0.870199978
     0.500000000         0.750000000         0.629800022
     0.500000000         0.250000000         0.370199978
     0.145999998         0.493999988         0.202000007
     0.853999972         0.506000042         0.797999978
     0.853999972         0.006000012         0.202000007
     0.145999998         0.993999958         0.797999978
     0.646000028         0.993999958         0.702000022
     0.354000002         0.006000012         0.297999978
     0.354000002         0.506000042         0.702000022
     0.646000028         0.493999988         0.297999978
     0.282999992         0.375000000         0.446000010
     0.717000008         0.625000000         0.554000020
     0.717000008         0.125000000         0.446000010
     0.282999992         0.875000000         0.554000020
     0.782999992         0.875000000         0.945999980
     0.217000008         0.125000000         0.053999990
     0.217000008         0.625000000         0.945999980
     0.782999992         0.375000000         0.053999990
