Fe2 O3                                  
   1.00000000000000     
     5.0648661099970269    0.0000605533934209   -0.0000069908903269
    -2.5323806406824785    4.3863319508075982    0.0000069883627580
    -0.0000379670154455    0.0000219271729461   27.5487912037543978
   Fe   O 
    24    36
Direct
  0.0000004016054262  0.0000006478899905  0.1767833614182379
  0.0000016300098906  0.0000008970759851  0.8229577569606192
  0.0000011399990427  0.9999996712201451  0.5732299902314608
  0.0000003453666011  0.0000021737606133  0.9270340727827602
  0.6666667922739720  0.3333330411881121  0.8433705346846239
  0.6666675344582416  0.3333327418138694  0.4896294635265406
  0.6666696955155373  0.3333335978965906  0.2399281310438397
  0.6666668679736745  0.3333340314191702  0.5936615270552466
  0.3333336302080738  0.6666697385121623  0.5100714268018720
  0.3333339697384119  0.6666668487011762  0.1563490858192651
  0.3333330757506090  0.6666667373777528  0.9066161677681208
  0.3333327979298488  0.6666675454079041  0.2603656203863238
  0.0000004034926988  0.0000006432101003  0.6767833542557540
  0.0000016151984354  0.0000008925336914  0.3229577577818645
  0.0000011635271520  0.9999996789618848  0.0732299988893601
  0.0000003146250265  0.0000021645237425  0.4270340802498964
  0.6666667583362340  0.3333330283860931  0.3433705374541560
  0.6666675538918696  0.3333327455383142  0.9896294595281319
  0.6666696730739545  0.3333335731166258  0.7399281311049108
  0.6666668627176264  0.3333340084751057  0.0936615260582983
  0.3333336473247002  0.6666697499961316  0.0100714182454240
  0.3333339598900267  0.6666668546538119  0.6563490744866485
  0.3333330451807655  0.6666667251028287  0.4066161760374101
  0.3333328062209873  0.6666675600728240  0.7603656207194689
  0.3050318485660384  0.0000064190523332  0.1250074634865896
  0.3050318370184826  0.0000064097258061  0.6250074639643017
  0.6955845724825735  0.9999970514492560  0.3749924197098764
  0.6955846129192480  0.9999970489774057  0.8749924133330040
  0.9999888611334171  0.3050231400122954  0.1250075336794154
  0.9999888508283519  0.3050231124845411  0.6250075318949158
  0.0000054844714015  0.6955888204347005  0.3749925624396013
  0.0000055099182745  0.6955888321319321  0.8749925592239478
  0.6949726555424505  0.6949638758500356  0.1250074912693222
  0.6949726573486075  0.6949638842361878  0.6250074906590939
  0.3044132390905503  0.3044174521679679  0.3749924912729554
  0.3044132571061695  0.3044174555631969  0.8749924894076599
  0.9716538005130744  0.3333105553991587  0.2916527526000294
  0.9716538133605610  0.3333105595715296  0.7916527449590518
  0.3623269774208779  0.3333832969839747  0.0416581770976592
  0.3623269649770151  0.3333833032530933  0.5416581784912324
  0.6666849519433242  0.6383410612014515  0.2916527334437831
  0.6666849717052372  0.6383410719131888  0.7916527261024555
  0.6666205629663580  0.0289464727496380  0.0416585388926833
  0.6666205371484040  0.0289464789521503  0.5416585379121273
  0.3616556717539012  0.0283422523533758  0.2916527408067751
  0.3616556991490185  0.0283422717240285  0.7916527315409851
  0.9710559850125691  0.6376747265251410  0.0416583887618174
  0.9710559507979966  0.6376747033384262  0.5416583862626396
  0.6383280488419345  0.6666500264736257  0.4583325204357322
  0.6383280750600093  0.6666500396669974  0.9583325181738118
  0.0289729822470832  0.6666523595336429  0.2083571965706454
  0.0289729613935705  0.6666523435663834  0.7083571939221969
  0.3333453541699640  0.9716756223380472  0.4583324931113566
  0.3333453906315853  0.9716756302144063  0.9583324913585969
  0.3333514011745251  0.3623217223391535  0.2083575390963119
  0.3333513786647089  0.3623216930300401  0.7083575342209869
  0.0283202626493946  0.3616684927944718  0.4583325222499752
  0.0283202738228923  0.3616684806573645  0.9583325180783930
  0.6376796897402315  0.9710292581201969  0.2083573205277531
  0.6376796601214139  0.9710292143802661  0.7083573177520819
 
  0.00000000E+00  0.00000000E+00  0.00000000E+00
  0.00000000E+00  0.00000000E+00  0.00000000E+00
  0.00000000E+00  0.00000000E+00  0.00000000E+00
  0.00000000E+00  0.00000000E+00  0.00000000E+00
  0.00000000E+00  0.00000000E+00  0.00000000E+00
  0.00000000E+00  0.00000000E+00  0.00000000E+00
  0.00000000E+00  0.00000000E+00  0.00000000E+00
  0.00000000E+00  0.00000000E+00  0.00000000E+00
  0.00000000E+00  0.00000000E+00  0.00000000E+00
  0.00000000E+00  0.00000000E+00  0.00000000E+00
  0.00000000E+00  0.00000000E+00  0.00000000E+00
  0.00000000E+00  0.00000000E+00  0.00000000E+00
  0.00000000E+00  0.00000000E+00  0.00000000E+00
  0.00000000E+00  0.00000000E+00  0.00000000E+00
  0.00000000E+00  0.00000000E+00  0.00000000E+00
  0.00000000E+00  0.00000000E+00  0.00000000E+00
  0.00000000E+00  0.00000000E+00  0.00000000E+00
  0.00000000E+00  0.00000000E+00  0.00000000E+00
  0.00000000E+00  0.00000000E+00  0.00000000E+00
  0.00000000E+00  0.00000000E+00  0.00000000E+00
  0.00000000E+00  0.00000000E+00  0.00000000E+00
  0.00000000E+00  0.00000000E+00  0.00000000E+00
  0.00000000E+00  0.00000000E+00  0.00000000E+00
  0.00000000E+00  0.00000000E+00  0.00000000E+00
  0.00000000E+00  0.00000000E+00  0.00000000E+00
  0.00000000E+00  0.00000000E+00  0.00000000E+00
  0.00000000E+00  0.00000000E+00  0.00000000E+00
  0.00000000E+00  0.00000000E+00  0.00000000E+00
  0.00000000E+00  0.00000000E+00  0.00000000E+00
  0.00000000E+00  0.00000000E+00  0.00000000E+00
  0.00000000E+00  0.00000000E+00  0.00000000E+00
  0.00000000E+00  0.00000000E+00  0.00000000E+00
  0.00000000E+00  0.00000000E+00  0.00000000E+00
  0.00000000E+00  0.00000000E+00  0.00000000E+00
  0.00000000E+00  0.00000000E+00  0.00000000E+00
  0.00000000E+00  0.00000000E+00  0.00000000E+00
  0.00000000E+00  0.00000000E+00  0.00000000E+00
  0.00000000E+00  0.00000000E+00  0.00000000E+00
  0.00000000E+00  0.00000000E+00  0.00000000E+00
  0.00000000E+00  0.00000000E+00  0.00000000E+00
  0.00000000E+00  0.00000000E+00  0.00000000E+00
  0.00000000E+00  0.00000000E+00  0.00000000E+00
  0.00000000E+00  0.00000000E+00  0.00000000E+00
  0.00000000E+00  0.00000000E+00  0.00000000E+00
  0.00000000E+00  0.00000000E+00  0.00000000E+00
  0.00000000E+00  0.00000000E+00  0.00000000E+00
  0.00000000E+00  0.00000000E+00  0.00000000E+00
  0.00000000E+00  0.00000000E+00  0.00000000E+00
  0.00000000E+00  0.00000000E+00  0.00000000E+00
  0.00000000E+00  0.00000000E+00  0.00000000E+00
  0.00000000E+00  0.00000000E+00  0.00000000E+00
  0.00000000E+00  0.00000000E+00  0.00000000E+00
  0.00000000E+00  0.00000000E+00  0.00000000E+00
  0.00000000E+00  0.00000000E+00  0.00000000E+00
  0.00000000E+00  0.00000000E+00  0.00000000E+00
  0.00000000E+00  0.00000000E+00  0.00000000E+00
  0.00000000E+00  0.00000000E+00  0.00000000E+00
  0.00000000E+00  0.00000000E+00  0.00000000E+00
  0.00000000E+00  0.00000000E+00  0.00000000E+00
  0.00000000E+00  0.00000000E+00  0.00000000E+00
