cobalt oxide                            
   1.00000000000000     
     2.7860508929474275    0.0000521591999200    0.0000027826363486
    -1.3929803112951804    2.4127626586602653   -0.0000001798761206
     0.0000121092284018    0.0000023739634708   13.5189081697188662
   Co   O 
     3     6
Direct
  0.9999997613715068  0.9999996412252352  0.5000708684824041
  0.6666666103728079  0.3333330645547128  0.8333272580264117
  0.3333337087776462  0.6666674019071120  0.1666019246664792
 -0.0000007111913335  0.9999989019821754  0.2354772311647880
  0.0000005999370236  0.0000010614108447  0.7644456213066856
  0.6666649384441378  0.3333310858342627  0.5689300330265018
  0.6666679678595622  0.3333360312982749  0.0976819906826978
  0.3333327027599747  0.6666649396954843  0.9022606973013985
  0.3333345116686747  0.6666679620918982  0.4312043523426135
 
  0.00000000E+00  0.00000000E+00  0.00000000E+00
  0.00000000E+00  0.00000000E+00  0.00000000E+00
  0.00000000E+00  0.00000000E+00  0.00000000E+00
  0.00000000E+00  0.00000000E+00  0.00000000E+00
  0.00000000E+00  0.00000000E+00  0.00000000E+00
  0.00000000E+00  0.00000000E+00  0.00000000E+00
  0.00000000E+00  0.00000000E+00  0.00000000E+00
  0.00000000E+00  0.00000000E+00  0.00000000E+00
  0.00000000E+00  0.00000000E+00  0.00000000E+00
