Co2 O2                                  
   1.00000000000000     
    -2.1170202339427640   -2.1170510367228617    0.0000391663968907
    -4.2325595615607865   -0.0014352595533798   -4.2327965288160776
     0.0000231173125505   -2.1170713026863535   -2.1172081831715164
   Co   O 
     2     2
Direct
  0.0000064161356477  0.0000011009715806  0.9999970621798795
  0.0000063986035812  0.5000014480752171  0.9999958854835000
  0.5000016274235222  0.2499857937540000  0.5000123998847030
  0.4999855578372490  0.7500116571992024  0.4999946524519174
 
  0.00000000E+00  0.00000000E+00  0.00000000E+00
  0.00000000E+00  0.00000000E+00  0.00000000E+00
  0.00000000E+00  0.00000000E+00  0.00000000E+00
  0.00000000E+00  0.00000000E+00  0.00000000E+00
