Co2 O2
1.0
-2.131500 -2.131500 0.000000
-4.263000 0.000000 -4.263000
0.000000 -2.131500 -2.131500
Co O
2 2
direct
0.000000 0.000000 0.000000 Co
0.000000 0.500000 0.000000 Co
0.500000 0.250000 0.500000 O
0.500000 0.750000 0.500000 O
