Li3 Ni3 O6                              
   1.00000000000000     
    -4.9574709214078982   -0.0001397299902484    1.1972613762958015
    -2.4782233853440250   -4.1448789484874196    0.5984558624453737
    -0.7664803520312939    0.0007838625472322    5.0132858727187726
   Li   Ni   O 
     3     3     6
Direct
  0.9989044325273255  0.9997197963073035  0.9999842116653568
  0.6652151212536310  0.6664772801315024  0.9997433270121121
  0.3321093595337175  0.3331028402089373  0.9998785523919977
  0.5009279300877267  0.0004647792549832  0.5000443255065008
  0.1671291069223457  0.6670206026992176  0.5006523391426612
  0.8341084435150137  0.3330669846609027  0.4998133905069366
  0.7733443603206425  0.0001621631696338  0.7262926861517727
  0.2270690291775281  0.9997364813108618  0.2737280055134406
  0.4405230503554804  0.6666653558280728  0.7259529214702738
  0.1069149595182566  0.3333189869673916  0.7261595771832816
  0.5601026723898528  0.3336675593462815  0.2737219124677779
  0.8937585343984722  0.6665971701148976  0.2738547509878941
 
  0.00000000E+00  0.00000000E+00  0.00000000E+00
  0.00000000E+00  0.00000000E+00  0.00000000E+00
  0.00000000E+00  0.00000000E+00  0.00000000E+00
  0.00000000E+00  0.00000000E+00  0.00000000E+00
  0.00000000E+00  0.00000000E+00  0.00000000E+00
  0.00000000E+00  0.00000000E+00  0.00000000E+00
  0.00000000E+00  0.00000000E+00  0.00000000E+00
  0.00000000E+00  0.00000000E+00  0.00000000E+00
  0.00000000E+00  0.00000000E+00  0.00000000E+00
  0.00000000E+00  0.00000000E+00  0.00000000E+00
  0.00000000E+00  0.00000000E+00  0.00000000E+00
  0.00000000E+00  0.00000000E+00  0.00000000E+00
