O3 V2                                   
   1.00000000000000     
     7.2339407262682220   -0.0000096587879164   -0.0110340146565352
    -0.0000047799631289    5.0339464491852137   -0.0000022677078737
    -0.6455188242516066   -0.0000034264001999    5.5181442625006678
   V    O 
     8    12
Direct
  0.3433426753413212  0.0038958627688098  0.2992679707981845
  0.6566231649618767  0.9960882859968404  0.7006737546240014
  0.1566299331566595  0.0039114666533395  0.7006807848398905
  0.8433368850513350  0.9961040041245715  0.2992615927500257
  0.8433356810429128  0.5038950203772553  0.7992616960039740
  0.1566281556203337  0.4960872420093332  0.2006818170795265
  0.6566218172560321  0.5039128659915953  0.2006741579415260
  0.3433413208184564  0.4961047282312319  0.7992686015538678
  0.4037552705684347  0.8490328870905287  0.6456720799349580
  0.5962637412882617  0.1508873194522231  0.3543470457359075
  0.0962691335083068  0.8491236035236265  0.3543446201460660
  0.9037504567969202  0.1509555850965557  0.6456758906691762
  0.9037487346184684  0.3490435716309763  0.1456752722829983
  0.0962679182993054  0.6508752903530644  0.8543461863263787
  0.5962626104042722  0.3491126568276374  0.8543465531524669
  0.4037544441058331  0.6509684350833169  0.1456733209345366
  0.2500228951224186  0.3218730570221837  0.5000411466801883
  0.7500102787415888  0.6781265778507871  0.5000330408125341
  0.7500103154732211  0.8218732034741811  0.0000316494299648
  0.2500245678240346  0.1781283544419366  0.0000428183038424
 
  0.00000000E+00  0.00000000E+00  0.00000000E+00
  0.00000000E+00  0.00000000E+00  0.00000000E+00
  0.00000000E+00  0.00000000E+00  0.00000000E+00
  0.00000000E+00  0.00000000E+00  0.00000000E+00
  0.00000000E+00  0.00000000E+00  0.00000000E+00
  0.00000000E+00  0.00000000E+00  0.00000000E+00
  0.00000000E+00  0.00000000E+00  0.00000000E+00
  0.00000000E+00  0.00000000E+00  0.00000000E+00
  0.00000000E+00  0.00000000E+00  0.00000000E+00
  0.00000000E+00  0.00000000E+00  0.00000000E+00
  0.00000000E+00  0.00000000E+00  0.00000000E+00
  0.00000000E+00  0.00000000E+00  0.00000000E+00
  0.00000000E+00  0.00000000E+00  0.00000000E+00
  0.00000000E+00  0.00000000E+00  0.00000000E+00
  0.00000000E+00  0.00000000E+00  0.00000000E+00
  0.00000000E+00  0.00000000E+00  0.00000000E+00
  0.00000000E+00  0.00000000E+00  0.00000000E+00
  0.00000000E+00  0.00000000E+00  0.00000000E+00
  0.00000000E+00  0.00000000E+00  0.00000000E+00
  0.00000000E+00  0.00000000E+00  0.00000000E+00
