Chromium oxide                          
   1.00000000000000     
     5.3884566838069397    0.0036158683323161    0.0024665963550256
     3.0836228488861197    4.4189091715239561    0.0024663523181629
     3.0836130460936921    1.6096841221667575    4.1153089759948376
   Cr   O 
     4     6
Direct
  0.1524304144695857  0.1524285561900570  0.1524293868731136
  0.8475700833928432  0.8475690893772364  0.8475693312481078
  0.3475704911143008  0.3475692195670976  0.3475698287752097
  0.6524302490407680  0.6524291164962163  0.6524300287882702
  0.9443313802271861  0.5556688016723135  0.2500007482779428
  0.0556678037598063  0.4443325709568373  0.7500006780371749
  0.2500002343422855  0.9443334336433161  0.5556667548410735
  0.7500003326025846  0.0556668119465043  0.4443324862204302
  0.5556657242893085  0.2500014375259024  0.9443334181797383
  0.4443332907613246  0.7500009666245192  0.0556673427589392
 
  0.00000000E+00  0.00000000E+00  0.00000000E+00
  0.00000000E+00  0.00000000E+00  0.00000000E+00
  0.00000000E+00  0.00000000E+00  0.00000000E+00
  0.00000000E+00  0.00000000E+00  0.00000000E+00
  0.00000000E+00  0.00000000E+00  0.00000000E+00
  0.00000000E+00  0.00000000E+00  0.00000000E+00
  0.00000000E+00  0.00000000E+00  0.00000000E+00
  0.00000000E+00  0.00000000E+00  0.00000000E+00
  0.00000000E+00  0.00000000E+00  0.00000000E+00
  0.00000000E+00  0.00000000E+00  0.00000000E+00
