Ni2 O2                                  
   1.00000000000000     
    -2.0817014463144732   -2.0816935342360217    0.0000088442727783
    -4.1615030357501395   -0.0018826525540874   -4.1616458392188864
     0.0000085942890332   -2.0816929576729781   -2.0817729975627928
   Ni   O 
     2     2
Direct
  0.9999952692426390  0.9999976009879106  0.0000047834791133
  0.9999952567278854  0.4999975815806579  0.0000048381690121
  0.5000033462226696  0.2500044757979722  0.4999938001289053
  0.5000061278068060  0.7500003416334593  0.4999965782229765
 
  0.00000000E+00  0.00000000E+00  0.00000000E+00
  0.00000000E+00  0.00000000E+00  0.00000000E+00
  0.00000000E+00  0.00000000E+00  0.00000000E+00
  0.00000000E+00  0.00000000E+00  0.00000000E+00
