Manganese(IV) oxide                     
   1.00000000000000     
     4.3866321610026660    0.0000025777025067   -0.0000003813309670
     0.0000025788494457    4.3866300399974358   -0.0000001491865913
    -0.0000002495973190   -0.0000000972557385    2.8666883813843755
   Mn   O 
     2     4
Direct
  0.0000007892840443  0.0000000847496722  0.9999999450252304
  0.5000007163687741  0.4999999985545358  0.5000000001077325
  0.3047374122158288  0.3047363653988668  0.9999999342206607
  0.6952618839249425  0.6952626505229134  0.0000000235424054
  0.1952617240906136  0.8047375526563059  0.5000000106603792
  0.8047374741157967  0.1952633481177131  0.5000000864435918
 
  0.00000000E+00  0.00000000E+00  0.00000000E+00
  0.00000000E+00  0.00000000E+00  0.00000000E+00
  0.00000000E+00  0.00000000E+00  0.00000000E+00
  0.00000000E+00  0.00000000E+00  0.00000000E+00
  0.00000000E+00  0.00000000E+00  0.00000000E+00
  0.00000000E+00  0.00000000E+00  0.00000000E+00
