Cu16 O16                                
   1.00000000000000     
     8.9677449176371660    0.0003563858601300   -1.4119582262438468
     0.0003998447334513    3.5421735484691754    0.0017469274075476
     0.1529618418660932    0.0050767130477208   10.2611675831110514
   Cu   O 
    16    16
Direct
  0.1252451290013141  0.7527379261272458  0.2490188780178002
  0.1252435728418391  0.7527285191889916  0.7490182155392802
  0.6252447882599697  0.7527403359329483  0.2490217437632936
  0.6252431824446134  0.7527251534826647  0.7490191483060116
  0.3752373062386098  0.7471665515174166  0.9990630047819238
  0.3752347167770154  0.7471671730006975  0.4990617753127324
  0.8752359155053853  0.7471685360787603  0.9990649026739575
  0.8752360701155268  0.7471666248136728  0.4990659807352245
  0.3747563164651950  0.2472740486115867  0.2509805005759134
  0.3747548907335272  0.2472589604699635  0.7509783616067267
  0.8747565651406362  0.2472809035381474  0.2509839012255384
  0.8747548247962698  0.2472630358692385  0.7509801879628313
  0.1247645521846934  0.2528281689095024  0.0009366703250322
  0.1247635806106828  0.2528315560267558  0.5009349816182720
  0.6247651814780468  0.2528276994579741  0.0009381155787338
  0.6247634326620215  0.2528302714037665  0.5009367848725716
  0.0004895740374806  0.5633303808213057  0.3744756572212395
  0.0004880221544283  0.5633251497071541  0.8744752532643219
  0.5004895992351805  0.5633221272629569  0.3744754316148331
  0.5004882273119833  0.5633167944519215  0.8744737448465187
  0.9995120131472888  0.4366769419180869  0.1255246366602947
  0.9995114212445131  0.4366750745129551  0.6255250521832991
  0.4995122084266725  0.4366772525328457  0.1255245997869494
  0.4995096153046745  0.4366769126344465  0.6255231583012772
  0.2492588817395571  0.0631424519422126  0.3754501494939788
  0.2492546362202717  0.0631302879386766  0.8754480366683453
  0.7492572994159659  0.0631381511499214  0.3754520410001021
  0.7492539150827611  0.0631266214130548  0.8754498070257313
  0.2507446756652527  0.9368732848516501  0.1245483545206199
  0.2507415796226695  0.9368576537324458  0.6245471632470725
  0.7507482933744640  0.9368767267786922  0.1245552248988275
  0.7507400127614687  0.9368587239223629  0.6245485363707530
 
  0.00000000E+00  0.00000000E+00  0.00000000E+00
  0.00000000E+00  0.00000000E+00  0.00000000E+00
  0.00000000E+00  0.00000000E+00  0.00000000E+00
  0.00000000E+00  0.00000000E+00  0.00000000E+00
  0.00000000E+00  0.00000000E+00  0.00000000E+00
  0.00000000E+00  0.00000000E+00  0.00000000E+00
  0.00000000E+00  0.00000000E+00  0.00000000E+00
  0.00000000E+00  0.00000000E+00  0.00000000E+00
  0.00000000E+00  0.00000000E+00  0.00000000E+00
  0.00000000E+00  0.00000000E+00  0.00000000E+00
  0.00000000E+00  0.00000000E+00  0.00000000E+00
  0.00000000E+00  0.00000000E+00  0.00000000E+00
  0.00000000E+00  0.00000000E+00  0.00000000E+00
  0.00000000E+00  0.00000000E+00  0.00000000E+00
  0.00000000E+00  0.00000000E+00  0.00000000E+00
  0.00000000E+00  0.00000000E+00  0.00000000E+00
  0.00000000E+00  0.00000000E+00  0.00000000E+00
  0.00000000E+00  0.00000000E+00  0.00000000E+00
  0.00000000E+00  0.00000000E+00  0.00000000E+00
  0.00000000E+00  0.00000000E+00  0.00000000E+00
  0.00000000E+00  0.00000000E+00  0.00000000E+00
  0.00000000E+00  0.00000000E+00  0.00000000E+00
  0.00000000E+00  0.00000000E+00  0.00000000E+00
  0.00000000E+00  0.00000000E+00  0.00000000E+00
  0.00000000E+00  0.00000000E+00  0.00000000E+00
  0.00000000E+00  0.00000000E+00  0.00000000E+00
  0.00000000E+00  0.00000000E+00  0.00000000E+00
  0.00000000E+00  0.00000000E+00  0.00000000E+00
  0.00000000E+00  0.00000000E+00  0.00000000E+00
  0.00000000E+00  0.00000000E+00  0.00000000E+00
  0.00000000E+00  0.00000000E+00  0.00000000E+00
  0.00000000E+00  0.00000000E+00  0.00000000E+00
