Cu16 O16
1.0
9.237850 0.000000 -1.552517
0.000000 3.422600 0.000000
0.000000 0.000000 10.257600
Cu O
16 16
direct
0.125000 0.750000 0.250000 Cu2+
0.125000 0.750000 0.750000 Cu2+
0.625000 0.750000 0.250000 Cu2+
0.625000 0.750000 0.750000 Cu2+
0.375000 0.750000 1.000000 Cu2+
0.375000 0.750000 0.500000 Cu2+
0.875000 0.750000 1.000000 Cu2+
0.875000 0.750000 0.500000 Cu2+
0.375000 0.250000 0.250000 Cu2+
0.375000 0.250000 0.750000 Cu2+
0.875000 0.250000 0.250000 Cu2+
0.875000 0.250000 0.750000 Cu2+
0.125000 0.250000 0.000000 Cu2+
0.125000 0.250000 0.500000 Cu2+
0.625000 0.250000 1.000000 Cu2+
0.625000 0.250000 0.500000 Cu2+
0.000000 0.581600 0.375000 O2-
0.000000 0.581600 0.875000 O2-
0.500000 0.581600 0.375000 O2-
0.500000 0.581600 0.875000 O2-
0.000000 0.418400 0.125000 O2-
0.000000 0.418400 0.625000 O2-
0.500000 0.418400 0.125000 O2-
0.500000 0.418400 0.625000 O2-
0.250000 0.081600 0.375000 O2-
0.250000 0.081600 0.875000 O2-
0.750000 0.081600 0.375000 O2-
0.750000 0.081600 0.875000 O2-
0.250000 0.918400 0.125000 O2-
0.250000 0.918400 0.625000 O2-
0.750000 0.918400 0.125000 O2-
0.750000 0.918400 0.625000 O2-
