Cu16 O16                                
   1.00000000000000     
     8.5798901554031737    0.0000778259348575   -1.2247846848667554
    -0.0001139737054884    3.7900959956574312   -0.0008210986788425
     0.3631163056829340   -0.0023182577300526   10.2613899636153096
   Cu   O 
    16    16
Direct
  0.1268584938621841  0.7505472986117475  0.2487237081477370
  0.1268552486089135  0.7505451463892747  0.7487297443119422
  0.6268535293484905  0.7505467715030543  0.2487255429430470
  0.6268577188815360  0.7505461432041773  0.7487297318177327
  0.3768470344697217  0.7495107566041910  0.9986947110253626
  0.3768460612772395  0.7495046632338876  0.4986888624757778
  0.8768428558998828  0.7495125212570752  0.9986964958662907
  0.8768452077362032  0.7494975842925246  0.4986890960455398
  0.3731395009734196  0.2494479212724614  0.2512689937800043
  0.3731462068575507  0.2494472050904896  0.7512755161960977
  0.8731434005448686  0.2494558089283913  0.2512694905035445
  0.8731449143638210  0.2494542682406751  0.7512780376299721
  0.1231557010651590  0.2504923982724337  0.0013081796007274
  0.1231527860637861  0.2504924148044189  0.5013064505707886
  0.6231543597711059  0.2504961410723865  0.0013109876494502
  0.6231538076105394  0.2504907931757265  0.5013050392394650
  0.0016422255917645  0.5392761228449046  0.3741945399523033
  0.0016409829921942  0.5392926977251694  0.8741968096559927
  0.5016422176440218  0.5392768085689653  0.3741946565510135
  0.5016423238825657  0.5392869603525209  0.8741976821339918
  0.9983566691773665  0.4607118564738621  0.1258041048434042
  0.9983577138614061  0.4607307565978364  0.6258020663937783
  0.4983569770004151  0.4607163241155625  0.1258041701277562
  0.4983591318473027  0.4607199657420635  0.6258022386360284
  0.2484899525816652  0.0393338125034483  0.3758287416244737
  0.2484953666703950  0.0393408704639758  0.8758335426713870
  0.7484901314236663  0.0393364650445867  0.3758299612397611
  0.7484937266258560  0.0393383534832107  0.8758352991877796
  0.2515077855517636  0.9606626358059644  0.1241685135096714
  0.2515112173726020  0.9606639721327813  0.6241685439613820
  0.7515063607828791  0.9606595025675994  0.1241696177199260
  0.7515103896597078  0.9606650596246262  0.6241689239878782
 
  0.00000000E+00  0.00000000E+00  0.00000000E+00
  0.00000000E+00  0.00000000E+00  0.00000000E+00
  0.00000000E+00  0.00000000E+00  0.00000000E+00
  0.00000000E+00  0.00000000E+00  0.00000000E+00
  0.00000000E+00  0.00000000E+00  0.00000000E+00
  0.00000000E+00  0.00000000E+00  0.00000000E+00
  0.00000000E+00  0.00000000E+00  0.00000000E+00
  0.00000000E+00  0.00000000E+00  0.00000000E+00
  0.00000000E+00  0.00000000E+00  0.00000000E+00
  0.00000000E+00  0.00000000E+00  0.00000000E+00
  0.00000000E+00  0.00000000E+00  0.00000000E+00
  0.00000000E+00  0.00000000E+00  0.00000000E+00
  0.00000000E+00  0.00000000E+00  0.00000000E+00
  0.00000000E+00  0.00000000E+00  0.00000000E+00
  0.00000000E+00  0.00000000E+00  0.00000000E+00
  0.00000000E+00  0.00000000E+00  0.00000000E+00
  0.00000000E+00  0.00000000E+00  0.00000000E+00
  0.00000000E+00  0.00000000E+00  0.00000000E+00
  0.00000000E+00  0.00000000E+00  0.00000000E+00
  0.00000000E+00  0.00000000E+00  0.00000000E+00
  0.00000000E+00  0.00000000E+00  0.00000000E+00
  0.00000000E+00  0.00000000E+00  0.00000000E+00
  0.00000000E+00  0.00000000E+00  0.00000000E+00
  0.00000000E+00  0.00000000E+00  0.00000000E+00
  0.00000000E+00  0.00000000E+00  0.00000000E+00
  0.00000000E+00  0.00000000E+00  0.00000000E+00
  0.00000000E+00  0.00000000E+00  0.00000000E+00
  0.00000000E+00  0.00000000E+00  0.00000000E+00
  0.00000000E+00  0.00000000E+00  0.00000000E+00
  0.00000000E+00  0.00000000E+00  0.00000000E+00
  0.00000000E+00  0.00000000E+00  0.00000000E+00
  0.00000000E+00  0.00000000E+00  0.00000000E+00
