Mn6 O8                                  
   1.00000000000000     
     5.8009306683365880    0.0134794668610338   -0.0216458193360949
    -2.8873697828670526    5.5219808186437218   -0.0126589800811219
    -0.0260133026837502   -3.0222526653878603    4.9516275340751568
   Mn   O 
     6     8
Direct
  0.1244376655099444  0.7505580671483330  0.3758214537390216
  0.6238821813712221  0.7494064533401499  0.3752522309107817
  0.6252539335377350  0.2494109749715818  0.3738858606940312
  0.6258270508601171  0.2505539500407750  0.8744282964040053
  0.2503808881269620  0.5001246538993200  0.7503878206050913
  0.0003946608907697  0.0000271261517142  0.0003124513435253
  0.8565821716239412  0.2677208400643778  0.1335831653472539
  0.4123532729312629  0.2675796222494142  0.1326746046674288
  0.8388810462753185  0.2322175081701801  0.6158693777708493
  0.3947956378307964  0.2324550401509740  0.6151568690500255
  0.8658356904602726  0.7322015611578578  0.5888712445596767
  0.8651137259086354  0.7324308870806391  0.1447994645288375
  0.3836207006500629  0.7677794880453348  0.6066179457166996
  0.3826413740229597  0.7675338275293413  0.1623392146627793
 
  0.00000000E+00  0.00000000E+00  0.00000000E+00
  0.00000000E+00  0.00000000E+00  0.00000000E+00
  0.00000000E+00  0.00000000E+00  0.00000000E+00
  0.00000000E+00  0.00000000E+00  0.00000000E+00
  0.00000000E+00  0.00000000E+00  0.00000000E+00
  0.00000000E+00  0.00000000E+00  0.00000000E+00
  0.00000000E+00  0.00000000E+00  0.00000000E+00
  0.00000000E+00  0.00000000E+00  0.00000000E+00
  0.00000000E+00  0.00000000E+00  0.00000000E+00
  0.00000000E+00  0.00000000E+00  0.00000000E+00
  0.00000000E+00  0.00000000E+00  0.00000000E+00
  0.00000000E+00  0.00000000E+00  0.00000000E+00
  0.00000000E+00  0.00000000E+00  0.00000000E+00
  0.00000000E+00  0.00000000E+00  0.00000000E+00
