Chromium oxide                          
   1.00000000000000     
     5.3627561976027707    0.0058909668387601    0.0084696288847131
     3.0704350715986357    4.3968622851865122    0.0080851056263819
     3.0671304902934224    1.6018270000187602    4.0982756585322928
   Cr   O 
     4     6
Direct
  0.1525382801427213  0.1525447576807153  0.1525209578315554
  0.8474183718043591  0.8474584404354175  0.8475465118336274
  0.3474168146427701  0.3474597985087300  0.3475228172046130
  0.6525503351590913  0.6525567207883824  0.6524789036051502
  0.9432622969368154  0.5567144473865966  0.2500121317734383
  0.0567002659690061  0.4432308252083530  0.7500290729506816
  0.2500064102128121  0.9434220665993678  0.5565554520511142
  0.7500365487752774  0.0565600021431791  0.4433827126138681
  0.5566169007231920  0.2500174173632672  0.9433947115805594
  0.4434537796339484  0.7500355278859843  0.0565567325553999
 
  0.00000000E+00  0.00000000E+00  0.00000000E+00
  0.00000000E+00  0.00000000E+00  0.00000000E+00
  0.00000000E+00  0.00000000E+00  0.00000000E+00
  0.00000000E+00  0.00000000E+00  0.00000000E+00
  0.00000000E+00  0.00000000E+00  0.00000000E+00
  0.00000000E+00  0.00000000E+00  0.00000000E+00
  0.00000000E+00  0.00000000E+00  0.00000000E+00
  0.00000000E+00  0.00000000E+00  0.00000000E+00
  0.00000000E+00  0.00000000E+00  0.00000000E+00
  0.00000000E+00  0.00000000E+00  0.00000000E+00
