Vanadium(IV) oxide                      
   1.00000000000000     
     5.8306771652169314   -0.0000056233028006    0.0457035853955753
     0.0000025993879491    4.5203989274828666   -0.0000168868659518
    -2.8928247167449088    0.0000007218402700    4.5035232151238356
   V    O 
     4     8
Direct
  0.2517951933117715  0.0003673969285884  0.0017330452073452
  0.7508800850758988  0.0003410598743656  0.9982448154753669
  0.7508591845589905  0.4996433685030368  0.4982248572725823
  0.2517954011031307  0.4996444407792424  0.5017363045461067
  0.0992420327273180  0.2045871416714462  0.2076094772336461
  0.8938816272311456  0.8044398323818811  0.8109867149349910
  0.8939035799960777  0.6955900514046647  0.3109815199722874
  0.0992471630347040  0.2954001706996365  0.7076152822704458
  0.3995137977810899  0.7037426643181774  0.2929213800277992
  0.6046749808270064  0.3052170173225477  0.6885165103196300
  0.6046697845729625  0.1947645580719382  0.1884891399074249
  0.3995371997799069  0.7962623120444547  0.7929409598323502
 
  0.00000000E+00  0.00000000E+00  0.00000000E+00
  0.00000000E+00  0.00000000E+00  0.00000000E+00
  0.00000000E+00  0.00000000E+00  0.00000000E+00
  0.00000000E+00  0.00000000E+00  0.00000000E+00
  0.00000000E+00  0.00000000E+00  0.00000000E+00
  0.00000000E+00  0.00000000E+00  0.00000000E+00
  0.00000000E+00  0.00000000E+00  0.00000000E+00
  0.00000000E+00  0.00000000E+00  0.00000000E+00
  0.00000000E+00  0.00000000E+00  0.00000000E+00
  0.00000000E+00  0.00000000E+00  0.00000000E+00
  0.00000000E+00  0.00000000E+00  0.00000000E+00
  0.00000000E+00  0.00000000E+00  0.00000000E+00
