Vanadium(IV) oxide
1.0
        5.7516999245         0.0000000000         0.0000000000
        0.0000000000         4.5377998352         0.0000000000
       -2.9035737324         0.0000000000         4.5321703056
    V    O
    4    8
Direct
     0.239470005         0.978940010         0.026459999
     0.760529995         0.021059990         0.973540008
     0.760529995         0.478940010         0.473540008
     0.239470005         0.521059990         0.526459992
     0.106160000         0.211850002         0.208590001
     0.893840015         0.788150012         0.791409969
     0.893840015         0.711849988         0.291409999
     0.106160000         0.288150012         0.708590031
     0.400510013         0.702579975         0.298839986
     0.599489987         0.297420025         0.701160014
     0.599489987         0.202579975         0.201160014
     0.400510013         0.797420025         0.798839986
