Ni2 O2                                  
   1.00000000000000     
    -2.0767407005471279   -2.0765491741155362   -0.0002053433886492
    -4.1502454147491727   -0.0036360645752063   -4.1510369858891591
    -0.0002140647514579   -2.0765302709577700   -2.0771267656604882
   Ni   O 
     2     2
Direct
  0.9999277958839059  0.9999624298869136  0.0000738397481115
  0.9999298062393009  0.4999635028946869  0.0000720901550793
  0.5000623630125389  0.2500501174409280  0.4999184486452393
  0.5000800348642542  0.7500239497774714  0.4999356214515700
 
  0.00000000E+00  0.00000000E+00  0.00000000E+00
  0.00000000E+00  0.00000000E+00  0.00000000E+00
  0.00000000E+00  0.00000000E+00  0.00000000E+00
  0.00000000E+00  0.00000000E+00  0.00000000E+00
