Manganese(IV) oxide                     
   1.00000000000000     
     4.3978621726164615   -0.0000049373180564   -0.0000003007156461
    -0.0000047773629354    4.3980006528409366   -0.0000001414649397
    -0.0000002008192644   -0.0000000788653972    2.8755647753696350
   Mn   O 
     2     4
Direct
  0.0000509048933326  0.0000661345009286  0.0000001221571672
  0.5000498489682754  0.4999348640717654  0.4999999317394359
  0.3047833693479915  0.3048240983365543  0.9999999806984157
  0.6951664468057817  0.6951281222857550  0.9999999537446356
  0.1951672958857171  0.8048703769913080  0.5000000149321989
  0.8047821340989091  0.1951764038136958  0.4999999967281469
 
  0.00000000E+00  0.00000000E+00  0.00000000E+00
  0.00000000E+00  0.00000000E+00  0.00000000E+00
  0.00000000E+00  0.00000000E+00  0.00000000E+00
  0.00000000E+00  0.00000000E+00  0.00000000E+00
  0.00000000E+00  0.00000000E+00  0.00000000E+00
  0.00000000E+00  0.00000000E+00  0.00000000E+00
