Manganese(IV) oxide
1.0
        4.3983001709         0.0000000000         0.0000000000
        0.0000000000         4.3983001709         0.0000000000
        0.0000000000         0.0000000000         2.8729999065
   Mn    O
    2    4
Direct
     0.000000000         0.000000000         0.000000000
     0.500000000         0.500000000         0.500000000
     0.305150002         0.305150002         0.000000000
     0.694849968         0.694849968         0.000000000
     0.194849998         0.805150032         0.500000000
     0.805150032         0.194849998         0.500000000
