Titanium oxide                          
   1.00000000000000     
     4.6206510245747232   -0.0000000887165452    0.0000002235614538
    -0.0000000889067701    4.6206510954519056   -0.0000003318679088
     0.0000001451846585   -0.0000002151191316    2.9932191010526794
   Ti   O 
     2     4
Direct
  0.0000001218093999  0.9999980918812881  0.0000003412600051
  0.4999975659422731  0.5000029233585224  0.5000001547022705
  0.3045921241596545  0.3045921711766439  0.9999998437033071
  0.6954085171994180  0.6954085512777439  0.9999998871462736
  0.1954090741484862  0.8045908905309744  0.4999999591301503
  0.8045925967407683  0.1954073717748201  0.4999998140579933
 
  0.00000000E+00  0.00000000E+00  0.00000000E+00
  0.00000000E+00  0.00000000E+00  0.00000000E+00
  0.00000000E+00  0.00000000E+00  0.00000000E+00
  0.00000000E+00  0.00000000E+00  0.00000000E+00
  0.00000000E+00  0.00000000E+00  0.00000000E+00
  0.00000000E+00  0.00000000E+00  0.00000000E+00
