Titanium oxide                          
   1.00000000000000     
     4.6221977107659207   -0.0000000310877255   -0.0000002581614546
    -0.0000000306159648    4.6221979000647790    0.0000001627794666
    -0.0000001664103672    0.0000001053739220    2.9960372932506578
   Ti   O 
     2     4
Direct
  0.9999994617858761  0.0000008016754620  0.0000001001452645
  0.5000009813886450  0.4999986863277641  0.5000000547710286
  0.3046031546055659  0.3046031662404260  0.9999999680583898
  0.6953967755427897  0.6953967675667201  0.9999999462141673
  0.1953966181958080  0.8046034936894060  0.4999998961278038
  0.8046030084813225  0.1953970845002289  0.5000000346833531
 
  0.00000000E+00  0.00000000E+00  0.00000000E+00
  0.00000000E+00  0.00000000E+00  0.00000000E+00
  0.00000000E+00  0.00000000E+00  0.00000000E+00
  0.00000000E+00  0.00000000E+00  0.00000000E+00
  0.00000000E+00  0.00000000E+00  0.00000000E+00
  0.00000000E+00  0.00000000E+00  0.00000000E+00
