Titanium oxide
1.0
        4.5940999985         0.0000000000         0.0000000000
        0.0000000000         4.5940999985         0.0000000000
        0.0000000000         0.0000000000         2.9588999748
   Ti    O
    2    4
Direct
     0.000000000         0.000000000         0.000000000
     0.500000000         0.500000000         0.500000000
     0.305700004         0.305700004         0.000000000
     0.694299996         0.694299996         0.000000000
     0.194299996         0.805700004         0.500000000
     0.805700004         0.194299996         0.500000000
