Dimanganese(VII) oxide                  
   1.00000000000000     
     6.7264130486387668    0.0000114302834218    0.0529776280411251
     0.0000278859037881   16.6625293255279452   -0.0000037532027894
    -1.5844498138678544   -0.0000051415430892    9.0545099748046400
   Mn   O 
    16    56
Direct
  0.3566093010611411  0.2534403563242407  0.5467360854365992
  0.6433890691316151  0.7465606386618404  0.4532644115746862
  0.6433907726764474  0.7534423975761086  0.9532628929835525
  0.3566086608931656  0.2465549951181600  0.0467349161395276
  0.9221806735428899  0.2537852123513673  0.3887692297556242
  0.0778188538825901  0.7462146647406698  0.6112298905450331
  0.0778171119817941  0.7537889051527955  0.1112263454806950
  0.9221825236815064  0.2462099282268611  0.8887728879844516
  0.7872045906702780  0.5029365718863374  0.6732290059368253
  0.2127950585222820  0.4970671333242507  0.3267723376530753
  0.2128008105509664  0.0029333617108875  0.8267721779056387
  0.7872006050431182  0.9970643741613046  0.1732299970155395
  0.2215028128905345  0.5024347993941163  0.8306266105643232
  0.7784955018941560  0.4975682220937614  0.1693712128616980
  0.7785021685335280  0.0024308114963745  0.6693782586414727
  0.2215012679938795  0.9975662913698855  0.3306249175196356
  0.1385720607473857  0.2021170837937944  0.4683601251484149
  0.8614287854597009  0.7978830819154012  0.5316397834912863
  0.8614291023445588  0.7021204624855599  0.0316382739808887
  0.1385722787855812  0.2978777674373561  0.9683605016474814
  0.4258079956335195  0.3073656548454267  0.4239951964428883
  0.5741877879857711  0.6926370129136501  0.5760064047380524
  0.5741874585695896  0.8073658847138887  0.0760056968580969
  0.4258118073687385  0.1926325801072934  0.9239908075201342
  0.5216095430959058  0.1896939383930558  0.6062028165581452
  0.4783922816506490  0.8103080618823384  0.3937957051554122
  0.4783949896327186  0.6896954669332445  0.8937951551810812
  0.5216043264085002  0.3103016921804524  0.1062044110454252
  0.3029486029182635  0.3072991066736463  0.6753259208725666
  0.6970481043947103  0.6927003700191960  0.3246757685454966
  0.6970476471569356  0.8073030826649301  0.8246742084532315
  0.3029518644978779  0.1926935910107090  0.1753225767719542
  0.8577414793141926  0.3106971844093422  0.5091048002909417
  0.1422567324064303  0.6893023192992018  0.4908939314481273
  0.1422532098647054  0.8107011677655294  0.9908912326980470
  0.8577451224202051  0.1892985311625637  0.0091090054476126
  0.7540472686471347  0.1903771304338804  0.3341311516735175
  0.2459538611571688  0.8096218422399986  0.6658677163426105
  0.2459540369911579  0.6903823651750542  0.1658644811389465
  0.7540476355928831  0.3096172968034665  0.8341344470045655
  0.9755243426036273  0.3047932224302912  0.2563329492200168
  0.0244744976528466  0.6952068442572710  0.7436658244960839
  0.0244732287055882  0.8047954986607593  0.2436647052082108
  0.9755247902786479  0.1952024871090856  0.7563352516582498
  0.0038734444435917  0.4510694270784796  0.7521353567831426
  0.9961269874052121  0.5489335973489347  0.2478651225944901
  0.9961337514854307  0.9510654604561992  0.7478723367006310
  0.0038675584735728  0.0489318535063106  0.2521345899334619
  0.8396333954620800  0.5543717249719151  0.5410285825248522
  0.1603666329228872  0.4456315264019182  0.4589721152094484
  0.1603711398826562  0.0543689577475419  0.9589722740290867
  0.8396298425405959  0.9456298880491474  0.0410283654115631
  0.6186580572362104  0.4397352505162218  0.6185876878467553
  0.3813414027907740  0.5602680321743208  0.3814133701471931
  0.3813533728075811  0.9397350477060371  0.8814128779165742
  0.6186502620846639  0.0602646443324772  0.1185892013088576
  0.7236669403692346  0.5595389026954720  0.7943753048497086
  0.2763348939089880  0.4404657357530226  0.2056253902471852
  0.2763310769946443  0.0595353142361432  0.7056236018521034
  0.7236676824298627  0.9404616034534214  0.2943768248274168
  0.2916285743083336  0.5561380470249802  0.7079793403176211
  0.7083690407266445  0.4438648357334500  0.2920180676919699
  0.7083740334522517  0.0561348428938118  0.7920240632940931
  0.2916271313142147  0.9438631285680259  0.2079769776009854
  0.3860283158102007  0.4385997336854359  0.8908517927251296
  0.6139705458341282  0.5614037240845491  0.1091470396999554
  0.6139765783788249  0.9385964824971680  0.6091523207277021
  0.3860266990229064  0.0614007399587067  0.3908496090059330
  0.1669643581008913  0.5564712335172501  0.9587030050450238
  0.8330297629046868  0.4435337392601397  0.0412902711017296
  0.8330403286866783  0.0564675186260075  0.5413019389466101
  0.1669674669874368  0.9435296164175355  0.4587025446248987
 
  0.00000000E+00  0.00000000E+00  0.00000000E+00
  0.00000000E+00  0.00000000E+00  0.00000000E+00
  0.00000000E+00  0.00000000E+00  0.00000000E+00
  0.00000000E+00  0.00000000E+00  0.00000000E+00
  0.00000000E+00  0.00000000E+00  0.00000000E+00
  0.00000000E+00  0.00000000E+00  0.00000000E+00
  0.00000000E+00  0.00000000E+00  0.00000000E+00
  0.00000000E+00  0.00000000E+00  0.00000000E+00
  0.00000000E+00  0.00000000E+00  0.00000000E+00
  0.00000000E+00  0.00000000E+00  0.00000000E+00
  0.00000000E+00  0.00000000E+00  0.00000000E+00
  0.00000000E+00  0.00000000E+00  0.00000000E+00
  0.00000000E+00  0.00000000E+00  0.00000000E+00
  0.00000000E+00  0.00000000E+00  0.00000000E+00
  0.00000000E+00  0.00000000E+00  0.00000000E+00
  0.00000000E+00  0.00000000E+00  0.00000000E+00
  0.00000000E+00  0.00000000E+00  0.00000000E+00
  0.00000000E+00  0.00000000E+00  0.00000000E+00
  0.00000000E+00  0.00000000E+00  0.00000000E+00
  0.00000000E+00  0.00000000E+00  0.00000000E+00
  0.00000000E+00  0.00000000E+00  0.00000000E+00
  0.00000000E+00  0.00000000E+00  0.00000000E+00
  0.00000000E+00  0.00000000E+00  0.00000000E+00
  0.00000000E+00  0.00000000E+00  0.00000000E+00
  0.00000000E+00  0.00000000E+00  0.00000000E+00
  0.00000000E+00  0.00000000E+00  0.00000000E+00
  0.00000000E+00  0.00000000E+00  0.00000000E+00
  0.00000000E+00  0.00000000E+00  0.00000000E+00
  0.00000000E+00  0.00000000E+00  0.00000000E+00
  0.00000000E+00  0.00000000E+00  0.00000000E+00
  0.00000000E+00  0.00000000E+00  0.00000000E+00
  0.00000000E+00  0.00000000E+00  0.00000000E+00
  0.00000000E+00  0.00000000E+00  0.00000000E+00
  0.00000000E+00  0.00000000E+00  0.00000000E+00
  0.00000000E+00  0.00000000E+00  0.00000000E+00
  0.00000000E+00  0.00000000E+00  0.00000000E+00
  0.00000000E+00  0.00000000E+00  0.00000000E+00
  0.00000000E+00  0.00000000E+00  0.00000000E+00
  0.00000000E+00  0.00000000E+00  0.00000000E+00
  0.00000000E+00  0.00000000E+00  0.00000000E+00
  0.00000000E+00  0.00000000E+00  0.00000000E+00
  0.00000000E+00  0.00000000E+00  0.00000000E+00
  0.00000000E+00  0.00000000E+00  0.00000000E+00
  0.00000000E+00  0.00000000E+00  0.00000000E+00
  0.00000000E+00  0.00000000E+00  0.00000000E+00
  0.00000000E+00  0.00000000E+00  0.00000000E+00
  0.00000000E+00  0.00000000E+00  0.00000000E+00
  0.00000000E+00  0.00000000E+00  0.00000000E+00
  0.00000000E+00  0.00000000E+00  0.00000000E+00
  0.00000000E+00  0.00000000E+00  0.00000000E+00
  0.00000000E+00  0.00000000E+00  0.00000000E+00
  0.00000000E+00  0.00000000E+00  0.00000000E+00
  0.00000000E+00  0.00000000E+00  0.00000000E+00
  0.00000000E+00  0.00000000E+00  0.00000000E+00
  0.00000000E+00  0.00000000E+00  0.00000000E+00
  0.00000000E+00  0.00000000E+00  0.00000000E+00
  0.00000000E+00  0.00000000E+00  0.00000000E+00
  0.00000000E+00  0.00000000E+00  0.00000000E+00
  0.00000000E+00  0.00000000E+00  0.00000000E+00
  0.00000000E+00  0.00000000E+00  0.00000000E+00
  0.00000000E+00  0.00000000E+00  0.00000000E+00
  0.00000000E+00  0.00000000E+00  0.00000000E+00
  0.00000000E+00  0.00000000E+00  0.00000000E+00
  0.00000000E+00  0.00000000E+00  0.00000000E+00
  0.00000000E+00  0.00000000E+00  0.00000000E+00
  0.00000000E+00  0.00000000E+00  0.00000000E+00
  0.00000000E+00  0.00000000E+00  0.00000000E+00
  0.00000000E+00  0.00000000E+00  0.00000000E+00
  0.00000000E+00  0.00000000E+00  0.00000000E+00
  0.00000000E+00  0.00000000E+00  0.00000000E+00
  0.00000000E+00  0.00000000E+00  0.00000000E+00
  0.00000000E+00  0.00000000E+00  0.00000000E+00
