Dimanganese(VII) oxide                  
   1.00000000000000     
     6.7278765413984987    0.0000130545571866    0.0540592265802971
     0.0000318010893335   16.6634111197733041    0.0000106044054696
    -1.5833324834489377    0.0000022835547186    9.0536927586622618
   Mn   O 
    16    56
Direct
  0.3565923202423403  0.2533840356700521  0.5467442067372638
  0.6434062180864181  0.7466171736868753  0.4532554445607743
  0.6434065197464612  0.7533865922568166  0.9532550826894887
  0.3565927413672058  0.2466100980611541  0.0467457362034045
  0.9221346868624289  0.2537456812948886  0.3887690262697110
  0.0778655582956080  0.7462539917154487  0.6112292946310038
  0.0778649297634069  0.7537493089242510  0.1112275297863608
  0.9221351491314824  0.2462496377498258  0.8887728812026271
  0.7872042649625285  0.5028948153780964  0.6732159909025729
  0.2127967597277620  0.4971089626016375  0.3267850124104888
  0.2128039116563306  0.0028913126291628  0.8267874452023993
  0.7871992784169760  0.9971067074004044  0.1732153388298501
  0.2215130032571457  0.5023911437461605  0.8306246183400490
  0.7784843367744108  0.4976119472133582  0.1693744260762904
  0.7784900824543588  0.0023872508898648  0.6693816711884035
  0.2215140992712660  0.9976101710453560  0.3306207702620639
  0.1385927339966786  0.2020933675154621  0.4683416963896794
  0.8614071856980714  0.7979067917414486  0.5316564788503119
  0.8614080597284610  0.7020948127707979  0.0316547029214001
  0.1385932628235259  0.2979039876452336  0.9683439074588839
  0.4257906571630743  0.3073462427442295  0.4240190068262960
  0.5742041677472778  0.6926569284288678  0.5759827922411385
  0.5742032264450246  0.8073462488727796  0.0759824846984061
  0.4257957476329150  0.1926526520192180  0.9240144707733094
  0.5216350675781695  0.1896838680017530  0.6062737878289408
  0.4783676639520227  0.8103181940232578  0.3937237806115114
  0.4783690576358440  0.6896841211372524  0.8937237012159180
  0.5216316696936097  0.3103137404166446  0.1062756194169125
  0.3029450112701738  0.3073043383504158  0.6752895091516987
  0.6970516916444668  0.6926952587431894  0.3247113956973596
  0.6970515081785039  0.8073081805571246  0.8247111648064515
  0.3029473757004617  0.1926878589233859  0.1752848752242792
  0.8577281965387699  0.3107062153465769  0.5090327853397840
  0.1422692278229475  0.6892932537832002  0.4909648140156786
  0.1422667452437178  0.8107096470318990  0.9909635119032562
  0.8577326052314310  0.1892898888045099  0.0090362058546560
  0.7539814153089790  0.1903611963147433  0.3341419910166507
  0.2460196755470219  0.8096379365903973  0.6658564121948510
  0.2460243950214325  0.6903650554228202  0.1658513107937896
  0.7539765666655369  0.3096348309369615  0.8341481179648396
  0.9755842742240493  0.3047684456924813  0.2563846469827244
  0.0244148734818110  0.6952314262927846  0.7436140010456039
  0.0244130234521060  0.8047709461321804  0.2436120936425421
  0.9755843570577253  0.1952260709364181  0.7563897640514216
  0.0038553739900040  0.4510669743681187  0.7521105872065134
  0.9961435633597818  0.5489349177186085  0.2478884742113895
  0.9961505018919523  0.9510631117771997  0.7478936959966016
  0.0038512443207128  0.0489330891533743  0.2521125057182920
  0.8396653073147963  0.5543766698084638  0.5410988991449333
  0.1603356948524774  0.4456267901703533  0.4589005648593601
  0.1603387908268391  0.0543748955277682  0.9589029599634689
  0.8396605795114799  0.9456250334360671  0.0410991449130458
  0.6186144375981493  0.4397450113836295  0.6185660951610570
  0.3813850998928528  0.5602589668992368  0.3814357398724018
  0.3813990703288755  0.9397447620420275  0.8814347740526791
  0.6186038746979204  0.0602547765665700  0.1185673814596889
  0.7237007737896556  0.5595180129902952  0.7943622420029083
  0.2763002665388675  0.4404845465109470  0.2056390167443897
  0.2762956868177053  0.0595165267235093  0.7056370420165650
  0.7237022835096671  0.9404822602421776  0.2943632458127418
  0.2915989159304890  0.5561322636452288  0.7080172152000349
  0.7083994433785634  0.4438712104411709  0.2919794751368233
  0.7084058318144749  0.0561285733068849  0.7919861687840027
  0.2915963262266087  0.9438692445649657  0.2080150599058563
  0.3860664558041677  0.4385817487243231  0.8908690939691855
  0.6139304446221051  0.5614227923023862  0.1091290026561688
  0.6139392996973151  0.9385779047122713  0.6091352870732928
  0.3860646436489770  0.0614194938717449  0.3908662806838370
  0.1669838279933787  0.5564570258361281  0.9586959887999547
  0.8330132927924742  0.4435459578305889  0.0413012548957122
  0.8330189956283682  0.0564538113909361  0.5413070924199468
  0.1669865727214460  0.9435432926156108  0.4586962071281118
 
  0.00000000E+00  0.00000000E+00  0.00000000E+00
  0.00000000E+00  0.00000000E+00  0.00000000E+00
  0.00000000E+00  0.00000000E+00  0.00000000E+00
  0.00000000E+00  0.00000000E+00  0.00000000E+00
  0.00000000E+00  0.00000000E+00  0.00000000E+00
  0.00000000E+00  0.00000000E+00  0.00000000E+00
  0.00000000E+00  0.00000000E+00  0.00000000E+00
  0.00000000E+00  0.00000000E+00  0.00000000E+00
  0.00000000E+00  0.00000000E+00  0.00000000E+00
  0.00000000E+00  0.00000000E+00  0.00000000E+00
  0.00000000E+00  0.00000000E+00  0.00000000E+00
  0.00000000E+00  0.00000000E+00  0.00000000E+00
  0.00000000E+00  0.00000000E+00  0.00000000E+00
  0.00000000E+00  0.00000000E+00  0.00000000E+00
  0.00000000E+00  0.00000000E+00  0.00000000E+00
  0.00000000E+00  0.00000000E+00  0.00000000E+00
  0.00000000E+00  0.00000000E+00  0.00000000E+00
  0.00000000E+00  0.00000000E+00  0.00000000E+00
  0.00000000E+00  0.00000000E+00  0.00000000E+00
  0.00000000E+00  0.00000000E+00  0.00000000E+00
  0.00000000E+00  0.00000000E+00  0.00000000E+00
  0.00000000E+00  0.00000000E+00  0.00000000E+00
  0.00000000E+00  0.00000000E+00  0.00000000E+00
  0.00000000E+00  0.00000000E+00  0.00000000E+00
  0.00000000E+00  0.00000000E+00  0.00000000E+00
  0.00000000E+00  0.00000000E+00  0.00000000E+00
  0.00000000E+00  0.00000000E+00  0.00000000E+00
  0.00000000E+00  0.00000000E+00  0.00000000E+00
  0.00000000E+00  0.00000000E+00  0.00000000E+00
  0.00000000E+00  0.00000000E+00  0.00000000E+00
  0.00000000E+00  0.00000000E+00  0.00000000E+00
  0.00000000E+00  0.00000000E+00  0.00000000E+00
  0.00000000E+00  0.00000000E+00  0.00000000E+00
  0.00000000E+00  0.00000000E+00  0.00000000E+00
  0.00000000E+00  0.00000000E+00  0.00000000E+00
  0.00000000E+00  0.00000000E+00  0.00000000E+00
  0.00000000E+00  0.00000000E+00  0.00000000E+00
  0.00000000E+00  0.00000000E+00  0.00000000E+00
  0.00000000E+00  0.00000000E+00  0.00000000E+00
  0.00000000E+00  0.00000000E+00  0.00000000E+00
  0.00000000E+00  0.00000000E+00  0.00000000E+00
  0.00000000E+00  0.00000000E+00  0.00000000E+00
  0.00000000E+00  0.00000000E+00  0.00000000E+00
  0.00000000E+00  0.00000000E+00  0.00000000E+00
  0.00000000E+00  0.00000000E+00  0.00000000E+00
  0.00000000E+00  0.00000000E+00  0.00000000E+00
  0.00000000E+00  0.00000000E+00  0.00000000E+00
  0.00000000E+00  0.00000000E+00  0.00000000E+00
  0.00000000E+00  0.00000000E+00  0.00000000E+00
  0.00000000E+00  0.00000000E+00  0.00000000E+00
  0.00000000E+00  0.00000000E+00  0.00000000E+00
  0.00000000E+00  0.00000000E+00  0.00000000E+00
  0.00000000E+00  0.00000000E+00  0.00000000E+00
  0.00000000E+00  0.00000000E+00  0.00000000E+00
  0.00000000E+00  0.00000000E+00  0.00000000E+00
  0.00000000E+00  0.00000000E+00  0.00000000E+00
  0.00000000E+00  0.00000000E+00  0.00000000E+00
  0.00000000E+00  0.00000000E+00  0.00000000E+00
  0.00000000E+00  0.00000000E+00  0.00000000E+00
  0.00000000E+00  0.00000000E+00  0.00000000E+00
  0.00000000E+00  0.00000000E+00  0.00000000E+00
  0.00000000E+00  0.00000000E+00  0.00000000E+00
  0.00000000E+00  0.00000000E+00  0.00000000E+00
  0.00000000E+00  0.00000000E+00  0.00000000E+00
  0.00000000E+00  0.00000000E+00  0.00000000E+00
  0.00000000E+00  0.00000000E+00  0.00000000E+00
  0.00000000E+00  0.00000000E+00  0.00000000E+00
  0.00000000E+00  0.00000000E+00  0.00000000E+00
  0.00000000E+00  0.00000000E+00  0.00000000E+00
  0.00000000E+00  0.00000000E+00  0.00000000E+00
  0.00000000E+00  0.00000000E+00  0.00000000E+00
  0.00000000E+00  0.00000000E+00  0.00000000E+00
