Chromium(IV) oxide - prepared under pressure of 36kbar
1.0
        4.4190001488         0.0000000000         0.0000000000
        0.0000000000         4.4190001488         0.0000000000
        0.0000000000         0.0000000000         2.9154000282
   Cr    O
    2    4
Direct
     0.000000000         0.000000000         0.000000000
     0.500000000         0.500000000         0.500000000
     0.304800004         0.304800004         0.000000000
     0.695199966         0.695199966         0.000000000
     0.195199996         0.804800034         0.500000000
     0.804800034         0.195199996         0.500000000
