Manganese(IV) oxide                     
   1.00000000000000     
     4.3959480733406169    0.0000247484662052   -0.0000019656463619
     0.0000247487739420    4.3959410300055710    0.0000005338003201
    -0.0000012860881694    0.0000003480199899    2.8860669447832801
   Mn   O 
     2     4
Direct
  0.0000015194490409  0.9999992933081167  0.0000002228117412
  0.5000009113245177  0.4999999608009684  0.5000000667706918
  0.3051190043355023  0.3051182156114674  0.0000000343869256
  0.6948796318285486  0.6948812868189969 -0.0000000014383812
  0.1948773206369266  0.8051216316110562  0.4999999580182915
  0.8051216124254639  0.1948796118493944  0.4999997194507311
 
  0.00000000E+00  0.00000000E+00  0.00000000E+00
  0.00000000E+00  0.00000000E+00  0.00000000E+00
  0.00000000E+00  0.00000000E+00  0.00000000E+00
  0.00000000E+00  0.00000000E+00  0.00000000E+00
  0.00000000E+00  0.00000000E+00  0.00000000E+00
  0.00000000E+00  0.00000000E+00  0.00000000E+00
