Ni2 O2
1.0
-2.089000 -2.089000 0.000000
-4.178000 0.000000 -4.178000
0.000000 -2.089000 -2.089000
Ni O
2 2
direct
0.000000 0.000000 0.000000 Ni
0.000000 0.500000 0.000000 Ni
0.500000 0.250000 0.500000 O
0.500000 0.750000 0.500000 O
