V1 O1
1.0
        5.8265600204         0.0000000000         0.0000000000
        2.9132800102         5.0459489944         0.0000000000
        2.9132800102         1.6819829981         4.7573663353
    V    O
    8    8
Direct
     0.000000000         0.000000000         0.000000000 V+
     0.000000000         0.500000000         0.000000000 V+
     0.500000000         0.000000000         0.000000000 V+
     0.500000000         0.500000000         0.000000000 V+
     0.000000000         0.000000000         0.500000000 V-
     0.000000000         0.500000000         0.500000000 V-
     0.500000000         0.000000000         0.500000000 V-
     0.500000000         0.500000000         0.500000000 V-
     0.250000000         0.250000000         0.250000000 O
     0.250000000         0.250000000         0.750000000 O
     0.250000000         0.750000000         0.250000000 O
     0.250000000         0.750000000         0.750000000 O
     0.750000000         0.250000000         0.250000000 O
     0.750000000         0.250000000         0.750000000 O
     0.750000000         0.750000000         0.250000000 O
     0.750000000         0.750000000         0.750000000 O
