Mn6 O8                                  
   1.00000000000000     
     5.7594779272153636    0.0126298532830030   -0.0206155615954222
    -2.8676190367340557    5.5080924005325391    0.0025253946962665
    -0.0241759543662923   -3.0007204579252926    4.9160233204632675
   Mn   O 
     6     8
Direct
  0.1226100915611568  0.7516325182860015  0.3775844058024305
  0.6209796372928267  0.7483732047003571  0.3759570557205407
  0.6259566931820544  0.2483734023729482  0.3709799509072411
  0.6275833839754199  0.2516326090168306  0.8726111562907874
  0.2509393343525801  0.4999981664793509  0.7509439836629355
  0.0009429551883429  0.9999950714005621  0.0009384426238270
  0.8574092922550776  0.2644977815404488  0.1308897188847027
  0.4105834379961024  0.2635596138855547  0.1296681534132205
  0.8429074384279645  0.2354953981853782  0.6163910526479697
  0.3970262933776780  0.2364459332732025  0.6161112146306067
  0.8663898830667591  0.7354938473310710  0.5929062286560551
  0.8661130505970434  0.7364463424734993  0.1470272758775621
  0.3808896410545870  0.7644968936614021  0.6074082886021159
  0.3796688676724003  0.7635592173933858  0.1605830722800050
 
  0.00000000E+00  0.00000000E+00  0.00000000E+00
  0.00000000E+00  0.00000000E+00  0.00000000E+00
  0.00000000E+00  0.00000000E+00  0.00000000E+00
  0.00000000E+00  0.00000000E+00  0.00000000E+00
  0.00000000E+00  0.00000000E+00  0.00000000E+00
  0.00000000E+00  0.00000000E+00  0.00000000E+00
  0.00000000E+00  0.00000000E+00  0.00000000E+00
  0.00000000E+00  0.00000000E+00  0.00000000E+00
  0.00000000E+00  0.00000000E+00  0.00000000E+00
  0.00000000E+00  0.00000000E+00  0.00000000E+00
  0.00000000E+00  0.00000000E+00  0.00000000E+00
  0.00000000E+00  0.00000000E+00  0.00000000E+00
  0.00000000E+00  0.00000000E+00  0.00000000E+00
  0.00000000E+00  0.00000000E+00  0.00000000E+00
