Mn6 O8                                  
   1.00000000000000     
     5.7594779272153636    0.0126298532830030   -0.0206155615954222
    -2.8676190367340557    5.5080924005325391    0.0025253946962665
    -0.0241759543662923   -3.0007204579252926    4.9160233204632675
   Mn   O 
     6     8
Direct
  0.1226100915611580  0.7516325182860022  0.3775844058024327
  0.6209796372928283  0.7483732047003600  0.3759570557205377
  0.6259566931820555  0.2483734023729502  0.3709799509072376
  0.6275833839754202  0.2516326090168308  0.8726111562907855
  0.2509393343525821  0.4999981664793474  0.7509439836629389
  0.0009429551883406 -0.0000049285994355  0.0009384426238260
  0.8574092922550791  0.2644977815404466  0.1308897188847059
  0.4105834379961008  0.2635596138855559  0.1296681534132169
  0.8429074384279645  0.2354953981853797  0.6163910526479697
  0.3970262933776750  0.2364459332732011  0.6161112146306057
  0.8663898830667609  0.7354938473310689  0.5929062286560580
  0.8661130505970465  0.7364463424735026  0.1470272758775617
  0.3808896410545884  0.7644968936614017  0.6074082886021172
  0.3796688676723995  0.7635592173933889  0.1605830722800070
 
  0.00000000E+00  0.00000000E+00  0.00000000E+00
  0.00000000E+00  0.00000000E+00  0.00000000E+00
  0.00000000E+00  0.00000000E+00  0.00000000E+00
  0.00000000E+00  0.00000000E+00  0.00000000E+00
  0.00000000E+00  0.00000000E+00  0.00000000E+00
  0.00000000E+00  0.00000000E+00  0.00000000E+00
  0.00000000E+00  0.00000000E+00  0.00000000E+00
  0.00000000E+00  0.00000000E+00  0.00000000E+00
  0.00000000E+00  0.00000000E+00  0.00000000E+00
  0.00000000E+00  0.00000000E+00  0.00000000E+00
  0.00000000E+00  0.00000000E+00  0.00000000E+00
  0.00000000E+00  0.00000000E+00  0.00000000E+00
  0.00000000E+00  0.00000000E+00  0.00000000E+00
  0.00000000E+00  0.00000000E+00  0.00000000E+00
