Dipotassium manganate(VI)               
   1.00000000000000     
     7.6402580874698938    0.0000171799868682   -0.0001975167472411
     0.0000126478269823    5.8067759586304737    0.0000123607089320
    -0.0002665484535236    0.0000220120820731   10.3219747566854991
   Mn   O    K 
     4    16     8
Direct
  0.2310029732492685  0.2500192860453912  0.4221574181934020
  0.7689567318400088  0.7500017480852607  0.5778201741781706
  0.2689080251790532  0.7499848227448522  0.9221638951025672
  0.7311224007330492  0.2499986279864203  0.0778251413591852
  0.0164333968113482  0.2499952211331411  0.4170566810121037
  0.9835326583662835  0.7500094061794762  0.5829873017404219
  0.4834739076977264  0.7499988276302587  0.9169546851893218
  0.5165482627283990  0.2500073509523210  0.0830415923639492
  0.2960606950232939  0.2500150880173684  0.5745792336189890
  0.7039372001676912  0.7499974039408195  0.4253969275201333
  0.2039941085927968  0.7500017452592830  0.0746037455108638
  0.7960143518184980  0.2499919453325339  0.9253912841583337
  0.3107947828754680  0.0208146155013365  0.3496276729911255
  0.6891705869226444  0.9791833188509692  0.6503700416340489
  0.1891040997380839  0.9791866259466082  0.8496292022803176
  0.8109263698613375  0.0207925160935048  0.1503507488529157
  0.6891781733619651  0.5208202006937578  0.6503750145709147
  0.3107825631150191  0.4792239082590046  0.3496294036861754
  0.8109279569023096  0.4792238805502061  0.1503404986756691
  0.1891051655857707  0.5207938882451506  0.8496318417006122
  0.1628839870689005  0.2499487670307102  0.0878630751046561
  0.8370915875204097  0.7499975224099493  0.9120957985695678
  0.3371552676718116  0.7500392532082735  0.5879567742815455
  0.6628871800571803  0.2499377646051708  0.4121512290242073
  0.9843511984029223  0.2499877096362561  0.6960669652169678
  0.0156490887965233  0.7500061141050810  0.3039223630267668
  0.5156706312469280  0.7500260055407717  0.1960774390379561
  0.4843366616652927  0.2499964480161248  0.8039338663990744
 
  0.00000000E+00  0.00000000E+00  0.00000000E+00
  0.00000000E+00  0.00000000E+00  0.00000000E+00
  0.00000000E+00  0.00000000E+00  0.00000000E+00
  0.00000000E+00  0.00000000E+00  0.00000000E+00
  0.00000000E+00  0.00000000E+00  0.00000000E+00
  0.00000000E+00  0.00000000E+00  0.00000000E+00
  0.00000000E+00  0.00000000E+00  0.00000000E+00
  0.00000000E+00  0.00000000E+00  0.00000000E+00
  0.00000000E+00  0.00000000E+00  0.00000000E+00
  0.00000000E+00  0.00000000E+00  0.00000000E+00
  0.00000000E+00  0.00000000E+00  0.00000000E+00
  0.00000000E+00  0.00000000E+00  0.00000000E+00
  0.00000000E+00  0.00000000E+00  0.00000000E+00
  0.00000000E+00  0.00000000E+00  0.00000000E+00
  0.00000000E+00  0.00000000E+00  0.00000000E+00
  0.00000000E+00  0.00000000E+00  0.00000000E+00
  0.00000000E+00  0.00000000E+00  0.00000000E+00
  0.00000000E+00  0.00000000E+00  0.00000000E+00
  0.00000000E+00  0.00000000E+00  0.00000000E+00
  0.00000000E+00  0.00000000E+00  0.00000000E+00
  0.00000000E+00  0.00000000E+00  0.00000000E+00
  0.00000000E+00  0.00000000E+00  0.00000000E+00
  0.00000000E+00  0.00000000E+00  0.00000000E+00
  0.00000000E+00  0.00000000E+00  0.00000000E+00
  0.00000000E+00  0.00000000E+00  0.00000000E+00
  0.00000000E+00  0.00000000E+00  0.00000000E+00
  0.00000000E+00  0.00000000E+00  0.00000000E+00
  0.00000000E+00  0.00000000E+00  0.00000000E+00
