Dipotassium manganate(VI)               
   1.00000000000000     
     7.6386611819587333    0.0001073035417098    0.0001054121915211
     0.0000819823838685    5.8080983264491035   -0.0000365504151748
     0.0001426529806656   -0.0000616144482978   10.3151215055560197
   Mn   O    K 
     4    16     8
Direct
  0.2305715481210928  0.2499949185702357  0.4219328905755605
  0.7694281446051179  0.7500049739352567  0.5781214216697964
  0.2694179058302921  0.7500110602884481  0.9218874075989667
  0.7305747147717486  0.2499979251608428  0.0780603051827823
  0.0159327097383002  0.2500066208481501  0.4177904931700606
  0.9840327884150579  0.7500214567076717  0.5823311443754572
  0.4840155467669175  0.7499924193263108  0.9176795637510495
  0.5159547456221650  0.2499931277397285  0.0821974918892190
  0.2970329177313889  0.2499864418942724  0.5741800167619031
  0.7030315837838370  0.7499911163439787  0.4258886143465228
  0.2030081658227581  0.7500116845259495  0.0741141182485631
  0.7970669409266042  0.2499739831986385  0.9258290794680361
  0.3097408291240068  0.0207270029389584  0.3489836444117577
  0.6902251230733899  0.9792314440610820  0.6510596110367873
  0.1902240442164480  0.9792317741455291  0.8489614566574480
  0.8097349290249291  0.0207472864027964  0.1510070400349279
  0.6902398718606026  0.5208097567163760  0.6510845696974632
  0.3097191195833780  0.4792638401225729  0.3489723021667722
  0.8097438870688548  0.4792413808314148  0.1509966655217137
  0.1902403993311275  0.5208152385709773  0.8489215541416281
  0.1627866001566400  0.2500092347635491  0.0874256469939048
  0.8372309274890735  0.7499863817024999  0.9125552248042249
  0.3372228580499492  0.7499512033786560  0.5874702001748925
  0.6628298852022623  0.2499936386017483  0.4125546403305092
  0.9849287409618072  0.2499887788995752  0.6962308083257596
  0.0150770191869351  0.7500190785058994  0.3037610474150678
  0.5150619583278073  0.7500195266288076  0.1962341315397326
  0.4849261082074919  0.2499787171900966  0.8037689247094766
 
  0.00000000E+00  0.00000000E+00  0.00000000E+00
  0.00000000E+00  0.00000000E+00  0.00000000E+00
  0.00000000E+00  0.00000000E+00  0.00000000E+00
  0.00000000E+00  0.00000000E+00  0.00000000E+00
  0.00000000E+00  0.00000000E+00  0.00000000E+00
  0.00000000E+00  0.00000000E+00  0.00000000E+00
  0.00000000E+00  0.00000000E+00  0.00000000E+00
  0.00000000E+00  0.00000000E+00  0.00000000E+00
  0.00000000E+00  0.00000000E+00  0.00000000E+00
  0.00000000E+00  0.00000000E+00  0.00000000E+00
  0.00000000E+00  0.00000000E+00  0.00000000E+00
  0.00000000E+00  0.00000000E+00  0.00000000E+00
  0.00000000E+00  0.00000000E+00  0.00000000E+00
  0.00000000E+00  0.00000000E+00  0.00000000E+00
  0.00000000E+00  0.00000000E+00  0.00000000E+00
  0.00000000E+00  0.00000000E+00  0.00000000E+00
  0.00000000E+00  0.00000000E+00  0.00000000E+00
  0.00000000E+00  0.00000000E+00  0.00000000E+00
  0.00000000E+00  0.00000000E+00  0.00000000E+00
  0.00000000E+00  0.00000000E+00  0.00000000E+00
  0.00000000E+00  0.00000000E+00  0.00000000E+00
  0.00000000E+00  0.00000000E+00  0.00000000E+00
  0.00000000E+00  0.00000000E+00  0.00000000E+00
  0.00000000E+00  0.00000000E+00  0.00000000E+00
  0.00000000E+00  0.00000000E+00  0.00000000E+00
  0.00000000E+00  0.00000000E+00  0.00000000E+00
  0.00000000E+00  0.00000000E+00  0.00000000E+00
  0.00000000E+00  0.00000000E+00  0.00000000E+00
