Dipotassium manganate(VI)
1.0
        7.6669998169         0.0000000000         0.0000000000
        0.0000000000         5.8949999809         0.0000000000
        0.0000000000         0.0000000000        10.3590002060
   Mn    O    K
    4   16    8
Direct
     0.229460001         0.250000000         0.420580000
     0.770539999         0.750000000         0.579419971
     0.270539999         0.750000000         0.920580029
     0.729460001         0.250000000         0.079420000
     0.016589999         0.250000000         0.416770011
     0.983410001         0.750000000         0.583230019
     0.483410001         0.750000000         0.916769981
     0.516589999         0.250000000         0.083229989
     0.301220000         0.250000000         0.571720004
     0.698780000         0.750000000         0.428279996
     0.198780000         0.750000000         0.071720004
     0.801220000         0.250000000         0.928279996
     0.305839986         0.022270000         0.347730011
     0.694159985         0.977729976         0.652269959
     0.194160014         0.977729976         0.847730041
     0.805840015         0.022270000         0.152269989
     0.694159985         0.522270024         0.652269959
     0.305839986         0.477730006         0.347730011
     0.805840015         0.477730006         0.152269989
     0.194160014         0.522270024         0.847730041
     0.163379997         0.250000000         0.086980000
     0.836619973         0.750000000         0.913020015
     0.336620003         0.750000000         0.586979985
     0.663380027         0.250000000         0.413020015
     0.987829983         0.250000000         0.698549986
     0.012170000         0.750000000         0.301450014
     0.512170017         0.750000000         0.198549986
     0.487830013         0.250000000         0.801450014
