V1 O1                                   
   1.00000000000000     
     6.3095441217256836    0.0003742946367487   -0.0000565992368112
     3.1550957694853641    5.4640422297344173   -0.0000556849446798
     3.1548239846668085    1.8214406482395957    4.5631434857324136
   V    O 
     8     8
Direct
  0.0000003285654893 -0.0000000411218305 -0.0000000369245756
  0.0000001626600181  0.4999994495451970  0.0000002943508104
  0.5000001133794686  0.0000006198398504  0.9999995572961238
  0.5000001893735753  0.4999996801964089  0.9999997311076960
  0.9999998494175220  0.0000005339924180  0.4999999721461793
  0.0000000848227431  0.5000000309498841  0.5000000355594424
  0.4999996821923847  0.9999999254623170  0.4999999837201634
  0.5000002277583130  0.4999996214183904  0.5000003662676744
  0.2499996479633901  0.2499999044480893  0.2499986991580750
  0.2499996545561539  0.2499981990618520  0.7500017062308150
  0.2499988774586081  0.7500024130272703  0.2499987146913115
  0.2499975250045434  0.7500013747642312  0.7500016310276572
  0.7500015427734379  0.2499980853334416  0.2499989488275045
  0.7500013033721719  0.2499972898515129  0.7500017622370270
  0.7500007666885472  0.7500021762030094  0.2499974366313272
  0.7500000440136335  0.7500007370279516  0.7500011976727754
 
  0.00000000E+00  0.00000000E+00  0.00000000E+00
  0.00000000E+00  0.00000000E+00  0.00000000E+00
  0.00000000E+00  0.00000000E+00  0.00000000E+00
  0.00000000E+00  0.00000000E+00  0.00000000E+00
  0.00000000E+00  0.00000000E+00  0.00000000E+00
  0.00000000E+00  0.00000000E+00  0.00000000E+00
  0.00000000E+00  0.00000000E+00  0.00000000E+00
  0.00000000E+00  0.00000000E+00  0.00000000E+00
  0.00000000E+00  0.00000000E+00  0.00000000E+00
  0.00000000E+00  0.00000000E+00  0.00000000E+00
  0.00000000E+00  0.00000000E+00  0.00000000E+00
  0.00000000E+00  0.00000000E+00  0.00000000E+00
  0.00000000E+00  0.00000000E+00  0.00000000E+00
  0.00000000E+00  0.00000000E+00  0.00000000E+00
  0.00000000E+00  0.00000000E+00  0.00000000E+00
  0.00000000E+00  0.00000000E+00  0.00000000E+00
