O5 V2                                   
   1.00000000000000     
    11.5611660806514944    0.0000035650410659    0.0000002761984134
     0.0000010916805317    3.5538682950307687    0.0000000308401806
     0.0000001095864976    0.0000000355370806    4.2826008049816906
   V    O 
     4    10
Direct
  0.1016125260185348  0.2499996718377844  0.8893795466451593
  0.8983934468698891  0.7500000460703120  0.1106484402278909
  0.3983935181256513  0.2500000891142733  0.8893521266741971
  0.6016124910262661  0.7499996525554948  0.1106198736132598
  0.1039083169467929  0.2500001000871919  0.5165310327668280
  0.8961041672293675  0.7500002180102712  0.4834958243111416
  0.3961041545562338  0.2500002115694997  0.5165047083843319
  0.6039083083392995  0.7500000814175536  0.4834684700266649
  0.9317235858215014  0.2499998169354143  0.0061387989095536
  0.0682601979899928  0.7500000682357069  0.9938967630720370
  0.5682601958446725  0.2500000760962990  0.0061031129349089
  0.4317235891238340  0.7499998075968932  0.9938612895523491
  0.2499976997242754  0.2500000737949293  0.9958140343241979
  0.7499978033836996  0.7500000866783694  0.0041859495574883
 
  0.00000000E+00  0.00000000E+00  0.00000000E+00
  0.00000000E+00  0.00000000E+00  0.00000000E+00
  0.00000000E+00  0.00000000E+00  0.00000000E+00
  0.00000000E+00  0.00000000E+00  0.00000000E+00
  0.00000000E+00  0.00000000E+00  0.00000000E+00
  0.00000000E+00  0.00000000E+00  0.00000000E+00
  0.00000000E+00  0.00000000E+00  0.00000000E+00
  0.00000000E+00  0.00000000E+00  0.00000000E+00
  0.00000000E+00  0.00000000E+00  0.00000000E+00
  0.00000000E+00  0.00000000E+00  0.00000000E+00
  0.00000000E+00  0.00000000E+00  0.00000000E+00
  0.00000000E+00  0.00000000E+00  0.00000000E+00
  0.00000000E+00  0.00000000E+00  0.00000000E+00
  0.00000000E+00  0.00000000E+00  0.00000000E+00
