V1 O1                                   
   1.00000000000000     
     6.3283991000823603   -0.0000396505769032   -0.0000313163295811
     3.1641652141426682    5.4805742121364851   -0.0000313409488997
     3.1641621977121468    1.8268297829914266    4.6599666894859046
   V    O 
     8     8
Direct
 -0.0000000687249723  0.0000002631295125  0.0000000398529498
  0.0000001685879247  0.4999996549279868 -0.0000000244753765
  0.4999997883040666  0.0000001504777808  0.0000000448787516
  0.5000001744155238  0.4999998420708436 -0.0000001125615503
  0.0000001709233856  0.0000000064863151  0.4999998534602999
 -0.0000000749916454  0.4999998911287382  0.5000000838013878
  0.4999999985595524 -0.0000001468405310  0.5000000580004473
  0.5000000195243262  0.5000000884155902  0.5000000300735381
  0.2499995999729586  0.2499996857913805  0.2500009551636129
  0.2500001108691700  0.2500002666630958  0.7499991901206953
  0.2499996165663809  0.7499998727313419  0.2500009872777914
  0.2500003144118331  0.7500004162534730  0.7499989502113653
  0.7499999066591347  0.2499994459258226  0.2500008891591440
  0.7500004689372541  0.2500003134754189  0.7499990834084327
  0.7499995943536236  0.7499997786313007  0.2500010582478812
  0.7500002116314687  0.7500004707319300  0.7499989133806153
 
  0.00000000E+00  0.00000000E+00  0.00000000E+00
  0.00000000E+00  0.00000000E+00  0.00000000E+00
  0.00000000E+00  0.00000000E+00  0.00000000E+00
  0.00000000E+00  0.00000000E+00  0.00000000E+00
  0.00000000E+00  0.00000000E+00  0.00000000E+00
  0.00000000E+00  0.00000000E+00  0.00000000E+00
  0.00000000E+00  0.00000000E+00  0.00000000E+00
  0.00000000E+00  0.00000000E+00  0.00000000E+00
  0.00000000E+00  0.00000000E+00  0.00000000E+00
  0.00000000E+00  0.00000000E+00  0.00000000E+00
  0.00000000E+00  0.00000000E+00  0.00000000E+00
  0.00000000E+00  0.00000000E+00  0.00000000E+00
  0.00000000E+00  0.00000000E+00  0.00000000E+00
  0.00000000E+00  0.00000000E+00  0.00000000E+00
  0.00000000E+00  0.00000000E+00  0.00000000E+00
  0.00000000E+00  0.00000000E+00  0.00000000E+00
