Cu16 O16                                
   1.00000000000000     
     8.7137905105768922    0.0001871108460127   -1.2576709484145123
     0.0001244052863527    3.6998578327981955    0.0002319011268609
     0.3337666643776079    0.0005722008218030   10.2581252332798467
   Cu   O 
    16    16
Direct
  0.1265609381163125  0.7493703150059789  0.2493789153815036
  0.1265596465403143  0.7493720707847241  0.7493810500173864
  0.6265585975825397  0.7493710933060678  0.2493800815520806
  0.6265608146819783  0.7493700943847138  0.7493794547278566
  0.3765546951476332  0.7506155208480265  0.9993855221481693
  0.3765558337659516  0.7506188822127347  0.4993818527151974
  0.8765562277552034  0.7506204417988888  0.9993824343792930
  0.8765553126013560  0.7506137097577424  0.4993860393914147
  0.3734392597767774  0.2506313401342994  0.2506146236535554
  0.3734414050163751  0.2506285676201510  0.7506141964006734
  0.8734413393212899  0.2506285564096662  0.2506134860412877
  0.8734384187004985  0.2506298938646038  0.7506144746106286
  0.1234456936733674  0.2493786695554859  0.0006139515377160
  0.1234464524821914  0.2493813531776567  0.5006111168067553
  0.6234457394969224  0.2493824968935437  0.0006107665813277
  0.6234453735918641  0.2493777971499763  0.5006142029481649
  0.0009278276142352  0.5428694888453297  0.3744227014343377
  0.0009253520644221  0.5428716652226748  0.8744245994914912
  0.5009240271865995  0.5428716779494784  0.3744228255958441
  0.5009270117379117  0.5428696813905037  0.8744238893916195
  0.9990750262823402  0.4571323413066840  0.1255819543024288
  0.9990720544462983  0.4571312296564672  0.6255801034729065
  0.4990716465969728  0.4571324680842395  0.1255812981336824
  0.4990744971528807  0.4571312462364573  0.6255815927109344
  0.2490074392843489  0.0430061993407799  0.3755772076424196
  0.2490036470089454  0.0430084375738082  0.8755770791804661
  0.7490039243814492  0.0430085006611970  0.3755756898890626
  0.7490075794283723  0.0430069682193285  0.8755779672329074
  0.2509916024202262  0.9569943696721211  0.1244275562396312
  0.2509946135790266  0.9569912159293288  0.6244278944292264
  0.7509951579091770  0.9569910618227533  0.1244281857060003
  0.7509928446562616  0.9569926451845746  0.6244272862540670
 
  0.00000000E+00  0.00000000E+00  0.00000000E+00
  0.00000000E+00  0.00000000E+00  0.00000000E+00
  0.00000000E+00  0.00000000E+00  0.00000000E+00
  0.00000000E+00  0.00000000E+00  0.00000000E+00
  0.00000000E+00  0.00000000E+00  0.00000000E+00
  0.00000000E+00  0.00000000E+00  0.00000000E+00
  0.00000000E+00  0.00000000E+00  0.00000000E+00
  0.00000000E+00  0.00000000E+00  0.00000000E+00
  0.00000000E+00  0.00000000E+00  0.00000000E+00
  0.00000000E+00  0.00000000E+00  0.00000000E+00
  0.00000000E+00  0.00000000E+00  0.00000000E+00
  0.00000000E+00  0.00000000E+00  0.00000000E+00
  0.00000000E+00  0.00000000E+00  0.00000000E+00
  0.00000000E+00  0.00000000E+00  0.00000000E+00
  0.00000000E+00  0.00000000E+00  0.00000000E+00
  0.00000000E+00  0.00000000E+00  0.00000000E+00
  0.00000000E+00  0.00000000E+00  0.00000000E+00
  0.00000000E+00  0.00000000E+00  0.00000000E+00
  0.00000000E+00  0.00000000E+00  0.00000000E+00
  0.00000000E+00  0.00000000E+00  0.00000000E+00
  0.00000000E+00  0.00000000E+00  0.00000000E+00
  0.00000000E+00  0.00000000E+00  0.00000000E+00
  0.00000000E+00  0.00000000E+00  0.00000000E+00
  0.00000000E+00  0.00000000E+00  0.00000000E+00
  0.00000000E+00  0.00000000E+00  0.00000000E+00
  0.00000000E+00  0.00000000E+00  0.00000000E+00
  0.00000000E+00  0.00000000E+00  0.00000000E+00
  0.00000000E+00  0.00000000E+00  0.00000000E+00
  0.00000000E+00  0.00000000E+00  0.00000000E+00
  0.00000000E+00  0.00000000E+00  0.00000000E+00
  0.00000000E+00  0.00000000E+00  0.00000000E+00
  0.00000000E+00  0.00000000E+00  0.00000000E+00
