Cu16 O16                                
   1.00000000000000     
     8.7315150247617783    0.0001785981197469   -1.2633103866369235
     0.0001056095903393    3.6916178268164734    0.0001219841330811
     0.3295837169815312    0.0002984086377735   10.2560658914660081
   Cu   O 
    16    16
Direct
  0.1265394925338411  0.7492146851767241  0.2493836260319422
  0.1265397006359426  0.7492092540799242  0.7493813993638540
  0.6265406233110352  0.7492133546755922  0.2493826397558952
  0.6265398821793867  0.7492121489666252  0.7493831063540938
  0.3765335046158332  0.7507542752067391 -0.0006184655098458
  0.3765326775504122  0.7507589241599714  0.4993795849261036
  0.8765335884953814  0.7507586738932235 -0.0006197812357391
  0.8765346284361938  0.7507521928357220  0.4993817021773284
  0.3734637498655569  0.2507862630073339  0.2506173479098672
  0.3734640624430944  0.2507861568298151  0.7506178769784151
  0.8734650858877222  0.2507888163585257  0.2506181847807420
  0.8734646950112014  0.2507862014423774  0.7506180032203228
  0.1234691873141602  0.2492515465701856  0.0006174147760912
  0.1234693963729817  0.2492496481425980  0.5006174803794619
  0.6234695785661251  0.2492533143074178  0.0006167675850756
  0.6234701038510387  0.2492479579434377  0.5006181545320570
  0.0009366110372765  0.5433479511681985  0.3744386401753647
  0.0009372933043732  0.5433472527771518  0.8744402486783038
  0.5009371877850495  0.5433482392585730  0.3744391181849653
  0.5009365003662346  0.5433472353254974  0.8744399515623431
 -0.0009417113219207  0.4566490925504000  0.1255605029980940
 -0.0009415525593554  0.4566494958130467  0.6255607291334311
  0.4990586817824478  0.4566496627855456  0.1255603447419653
  0.4990579452455724  0.4566479306492922  0.6255609944298733
  0.2490182847645789  0.0434646981981445  0.3755606611265928
  0.2490181555827004  0.0434657212181927  0.8755613016913845
  0.7490187400588535  0.0434669023774926  0.3755598844230408
  0.7490184519690801  0.0434648254394186  0.8755617567232273
  0.2509786459886219  0.9565327200645254  0.1244401932432586
  0.2509789441445397  0.9565310614517982  0.6244404044035526
  0.7509799429736431  0.9565320418743732  0.1244403251130044
  0.7509779218083974  0.9565317554521365  0.6244399013459336
 
  0.00000000E+00  0.00000000E+00  0.00000000E+00
  0.00000000E+00  0.00000000E+00  0.00000000E+00
  0.00000000E+00  0.00000000E+00  0.00000000E+00
  0.00000000E+00  0.00000000E+00  0.00000000E+00
  0.00000000E+00  0.00000000E+00  0.00000000E+00
  0.00000000E+00  0.00000000E+00  0.00000000E+00
  0.00000000E+00  0.00000000E+00  0.00000000E+00
  0.00000000E+00  0.00000000E+00  0.00000000E+00
  0.00000000E+00  0.00000000E+00  0.00000000E+00
  0.00000000E+00  0.00000000E+00  0.00000000E+00
  0.00000000E+00  0.00000000E+00  0.00000000E+00
  0.00000000E+00  0.00000000E+00  0.00000000E+00
  0.00000000E+00  0.00000000E+00  0.00000000E+00
  0.00000000E+00  0.00000000E+00  0.00000000E+00
  0.00000000E+00  0.00000000E+00  0.00000000E+00
  0.00000000E+00  0.00000000E+00  0.00000000E+00
  0.00000000E+00  0.00000000E+00  0.00000000E+00
  0.00000000E+00  0.00000000E+00  0.00000000E+00
  0.00000000E+00  0.00000000E+00  0.00000000E+00
  0.00000000E+00  0.00000000E+00  0.00000000E+00
  0.00000000E+00  0.00000000E+00  0.00000000E+00
  0.00000000E+00  0.00000000E+00  0.00000000E+00
  0.00000000E+00  0.00000000E+00  0.00000000E+00
  0.00000000E+00  0.00000000E+00  0.00000000E+00
  0.00000000E+00  0.00000000E+00  0.00000000E+00
  0.00000000E+00  0.00000000E+00  0.00000000E+00
  0.00000000E+00  0.00000000E+00  0.00000000E+00
  0.00000000E+00  0.00000000E+00  0.00000000E+00
  0.00000000E+00  0.00000000E+00  0.00000000E+00
  0.00000000E+00  0.00000000E+00  0.00000000E+00
  0.00000000E+00  0.00000000E+00  0.00000000E+00
  0.00000000E+00  0.00000000E+00  0.00000000E+00
