O5 V2                                   
   1.00000000000000     
    11.5717164628374238   -0.0000000860129786   -0.0000004445418754
    -0.0000000251205512    3.5641240091103148   -0.0000000287183274
    -0.0000001546438656   -0.0000000384508015    4.2760724157944079
   V    O 
     4    10
Direct
  0.1014128687133748  0.2500000666168063  0.8894105869955737
  0.8985975190049160  0.7500000020124702  0.1105762169049598
  0.3985980371076820  0.2500000563225981  0.8894247418744996
  0.6014128106237564  0.7500000071946076  0.1105873171277381
  0.1036117007969111  0.2500000175444370  0.5154220165961476
  0.8963934306576036  0.7499999891026619  0.4845973294898513
  0.3963936159249855  0.2499999888639692  0.5154016962238970
  0.6036116131650360  0.7499999813035103  0.4845771497042506
  0.9318847493100222  0.2500000356356509  0.0061250491837015
  0.0680987646966571  0.7499999519759797  0.9939065541239955
  0.5680990015053098  0.2499999231388870  0.0060946251019232
  0.4318852915022902  0.7499999958627868  0.9938757410512338
  0.2500006064373608  0.2500000105193010  0.9966187445304087
  0.7499999915541053  0.7499999739063412  0.0033822020918066
 
  0.00000000E+00  0.00000000E+00  0.00000000E+00
  0.00000000E+00  0.00000000E+00  0.00000000E+00
  0.00000000E+00  0.00000000E+00  0.00000000E+00
  0.00000000E+00  0.00000000E+00  0.00000000E+00
  0.00000000E+00  0.00000000E+00  0.00000000E+00
  0.00000000E+00  0.00000000E+00  0.00000000E+00
  0.00000000E+00  0.00000000E+00  0.00000000E+00
  0.00000000E+00  0.00000000E+00  0.00000000E+00
  0.00000000E+00  0.00000000E+00  0.00000000E+00
  0.00000000E+00  0.00000000E+00  0.00000000E+00
  0.00000000E+00  0.00000000E+00  0.00000000E+00
  0.00000000E+00  0.00000000E+00  0.00000000E+00
  0.00000000E+00  0.00000000E+00  0.00000000E+00
  0.00000000E+00  0.00000000E+00  0.00000000E+00
