Co6 O8                                  
   1.00000000000000     
    -4.0385096079318350   -4.0384928773970845    0.0000684613737320
    -4.0385095593772631    0.0000684213746233   -4.0385060389576806
     0.0000684016385468   -4.0384928100538753   -4.0385060749307167
   Co   O 
     6     8
Direct
  0.7500030433563012  0.7500030575748653  0.7499990514607404
  0.0000010005251312  0.0000009397291478  0.9999969115157086
  0.8749982535766421  0.3749982158198790  0.3750014036803435
  0.3749982059612478  0.8749982629773285  0.3750021229234193
  0.3749977618268900  0.3749970567646486  0.8750042028684888
  0.3749970564809288  0.3749977498448018  0.3750009812153792
  0.5839621251651863  0.1386795250866655  0.1386750535903047
  0.1386795652168402  0.5839621384163109  0.1386829285269684
  0.1386761882671834  0.1386841784780444  0.5839659216262518
  0.1386826450565835  0.1386747243072932  0.1386718736570742
  0.1660450496065735  0.6113229467882633  0.6113201446883636
  0.6113229251630727  0.1660450387073240  0.6113122353053413
  0.6113212976424407  0.6113133958545021  0.1660488667208568
  0.6113148821549856  0.6113227696509327  0.6113183022207593
 
  0.00000000E+00  0.00000000E+00  0.00000000E+00
  0.00000000E+00  0.00000000E+00  0.00000000E+00
  0.00000000E+00  0.00000000E+00  0.00000000E+00
  0.00000000E+00  0.00000000E+00  0.00000000E+00
  0.00000000E+00  0.00000000E+00  0.00000000E+00
  0.00000000E+00  0.00000000E+00  0.00000000E+00
  0.00000000E+00  0.00000000E+00  0.00000000E+00
  0.00000000E+00  0.00000000E+00  0.00000000E+00
  0.00000000E+00  0.00000000E+00  0.00000000E+00
  0.00000000E+00  0.00000000E+00  0.00000000E+00
  0.00000000E+00  0.00000000E+00  0.00000000E+00
  0.00000000E+00  0.00000000E+00  0.00000000E+00
  0.00000000E+00  0.00000000E+00  0.00000000E+00
  0.00000000E+00  0.00000000E+00  0.00000000E+00
