Mn6 O8
1.0
        5.7500000000         0.0000000000         0.0000000000
       -2.8749996520         5.5181271729         0.0000000000
        0.0000000000        -2.9958077226         4.9079156563
   Mn    O
    6    8
Direct
     0.125000000         0.750000000         0.375000000
     0.625000000         0.750000000         0.375000000
     0.625000000         0.250000000         0.375000000
     0.625000000         0.250000000         0.875000000
     0.250000000         0.500000000         0.750000000
     0.000000000         0.000000000         0.000000000
     0.875000000         0.250000000         0.125000000
     0.375000000         0.250000000         0.125000000
     0.875000000         0.250000000         0.625000000
     0.375000000         0.250000000         0.625000000
     0.875000000         0.750000000         0.625000000
     0.875000000         0.750000000         0.125000000
     0.375000000         0.750000000         0.625000000
     0.375000000         0.750000000         0.125000000
