Manganese(IV) oxide                     
   1.00000000000000     
     4.3862471556497153    0.0000520936932433    0.0000011598140908
     0.0000515585524041    4.3867094292646787   -0.0000006782783936
     0.0000007533778998   -0.0000004386233592    2.8481298966920603
   Mn   O 
     2     4
Direct
  0.0001189415254135  0.0001234085359784 -0.0000000221096485
  0.5001189191058911  0.4998760536111607  0.5000000915750435
  0.3041124483375103  0.3042956843103547 -0.0000000879686639
  0.6957687494020581  0.6956699432475894  0.0000000593666551
  0.1957735854086277  0.8043255417522807  0.5000000820590714
  0.8041073562204991  0.1957093685426361  0.4999998770775422
 
  0.00000000E+00  0.00000000E+00  0.00000000E+00
  0.00000000E+00  0.00000000E+00  0.00000000E+00
  0.00000000E+00  0.00000000E+00  0.00000000E+00
  0.00000000E+00  0.00000000E+00  0.00000000E+00
  0.00000000E+00  0.00000000E+00  0.00000000E+00
  0.00000000E+00  0.00000000E+00  0.00000000E+00
