Copper(I) oxide                         
   1.00000000000000     
     4.2318583391263207    0.0000004960240788   -0.0000005399466512
     0.0000004958394013    4.2318583068830007   -0.0000001730995406
    -0.0000005411678746   -0.0000001742362069    4.2318582198608583
   Cu   O 
     4     2
Direct
  0.9999999427767818  0.9999999910497408  0.0000000398423481
  0.5000000060162080  0.5000000090107335  0.9999999894752989
  0.5000000680431427  0.0000000138512846  0.4999999808814906
  0.9999999771416768  0.4999999412172684  0.4999999702291476
  0.2499999677411679  0.2499997007356001  0.2500003939991302
  0.7500000382810228  0.7500003441353797  0.7499996255725918
 
  0.00000000E+00  0.00000000E+00  0.00000000E+00
  0.00000000E+00  0.00000000E+00  0.00000000E+00
  0.00000000E+00  0.00000000E+00  0.00000000E+00
  0.00000000E+00  0.00000000E+00  0.00000000E+00
  0.00000000E+00  0.00000000E+00  0.00000000E+00
  0.00000000E+00  0.00000000E+00  0.00000000E+00
