Mn6 O8                                  
   1.00000000000000     
     5.8009306683365880    0.0134794668610338   -0.0216458193360949
    -2.8873697828670526    5.5219808186437218   -0.0126589800811219
    -0.0260133026837502   -3.0222526653878603    4.9516275340751568
   Mn   O 
     6     8
Direct
  0.1244376655099460  0.7505580671483351  0.3758214537390199
  0.6238821813712225  0.7494064533401509  0.3752522309107839
  0.6252539335377356  0.2494109749715818  0.3738858606940310
  0.6258270508601144  0.2505539500407731  0.8744282964040068
  0.2503808881269633  0.5001246538993236  0.7503878206050910
  0.0003946608907728  0.0000271261517110  0.0003124513435263
  0.8565821716239405  0.2677208400643761  0.1335831653472530
  0.4123532729312600  0.2675796222494178  0.1326746046674267
  0.8388810462753187  0.2322175081701815  0.6158693777708475
  0.3947956378307961  0.2324550401509724  0.6151568690500246
  0.8658356904602726  0.7322015611578568  0.5888712445596775
  0.8651137259086360  0.7324308870806376  0.1447994645288359
  0.3836207006500602  0.7677794880453380  0.6066179457166977
  0.3826413740229610  0.7675338275293438  0.1623392146627773
 
  0.00000000E+00  0.00000000E+00  0.00000000E+00
  0.00000000E+00  0.00000000E+00  0.00000000E+00
  0.00000000E+00  0.00000000E+00  0.00000000E+00
  0.00000000E+00  0.00000000E+00  0.00000000E+00
  0.00000000E+00  0.00000000E+00  0.00000000E+00
  0.00000000E+00  0.00000000E+00  0.00000000E+00
  0.00000000E+00  0.00000000E+00  0.00000000E+00
  0.00000000E+00  0.00000000E+00  0.00000000E+00
  0.00000000E+00  0.00000000E+00  0.00000000E+00
  0.00000000E+00  0.00000000E+00  0.00000000E+00
  0.00000000E+00  0.00000000E+00  0.00000000E+00
  0.00000000E+00  0.00000000E+00  0.00000000E+00
  0.00000000E+00  0.00000000E+00  0.00000000E+00
  0.00000000E+00  0.00000000E+00  0.00000000E+00
