Vanadium(IV) oxide                      
   1.00000000000000     
     5.8317118225146229   -0.0000426420966522    0.0511667364167022
    -0.0000330431541431    4.5331775724951173   -0.0000146141670885
    -2.9027251412726200    0.0000062945680159    4.5085946972923168
   V    O 
     4     8
Direct
  0.2495116352220279  0.9993381209031540  0.0010330427508620
  0.7494674188362325  0.0004205192416791  0.9980559199059513
  0.7494590572908422  0.4995800848154843  0.4980481366812057
  0.2495150278390739  0.5006581701247867  0.5010358496557998
  0.1060174668933769  0.1958439806238061  0.1894585981293204
  0.9002478055913841  0.7958191323871660  0.7929414804641226
  0.9002456076169381  0.7041697505394637  0.2929496108986811
  0.1060103400080123  0.3041726561884559  0.6894489350466344
  0.3948277617840574  0.6951262298435381  0.3111513498417295
  0.5999382883272801  0.2964934295661408  0.7073613709804007
  0.5999374095410346  0.2035162531601102  0.2073717841348923
  0.3948222110497426  0.8048616866062233  0.8111439285103970
 
  0.00000000E+00  0.00000000E+00  0.00000000E+00
  0.00000000E+00  0.00000000E+00  0.00000000E+00
  0.00000000E+00  0.00000000E+00  0.00000000E+00
  0.00000000E+00  0.00000000E+00  0.00000000E+00
  0.00000000E+00  0.00000000E+00  0.00000000E+00
  0.00000000E+00  0.00000000E+00  0.00000000E+00
  0.00000000E+00  0.00000000E+00  0.00000000E+00
  0.00000000E+00  0.00000000E+00  0.00000000E+00
  0.00000000E+00  0.00000000E+00  0.00000000E+00
  0.00000000E+00  0.00000000E+00  0.00000000E+00
  0.00000000E+00  0.00000000E+00  0.00000000E+00
  0.00000000E+00  0.00000000E+00  0.00000000E+00
