Fe8 O8                                  
   1.00000000000000     
    -4.3108469143618242   -4.3553264843686845   -0.0162995871028698
    -4.3280647601820004    0.0051242737921616   -4.3311103119348484
     0.0110178757606608   -4.3783131037379377   -4.3385343944905737
   Fe   O 
     8     8
Direct
  0.9999935117766796  0.9999729888400779  0.0000133529421404
  0.0000418435707417  0.9999777780352161  0.4999901873673096
  0.9999888118884428  0.5000059519902322  0.9999996041434258
  0.0000080593945029  0.4999672685231005  0.5000148238519699
  0.4999781246307222  0.0000837489382306  0.9999473491659714
  0.5000749396020865  0.9999745542192713  0.5000534220160446
  0.4999894264329399  0.4999823619551833  0.0000146280541884
  0.5000148697326168  0.5000694569251181  0.4999427605952462
  0.2478924913191918  0.2312725362054948  0.2496072479222846
  0.2612152913416068  0.2390061976554207  0.7388911918092376
  0.2290713037076983  0.7506495548121492  0.2492295140158589
  0.2615637532420081  0.7195403251662427  0.7606035792042931
  0.7384191239729603  0.2804328694425919  0.2394184485233168
  0.7708849095891495  0.2493369303159838  0.7507640745339756
  0.7387784847885541  0.7609885546533803  0.2611083313661879
  0.7520850550100917  0.7687389223222993  0.7504014844885489
 
  0.00000000E+00  0.00000000E+00  0.00000000E+00
  0.00000000E+00  0.00000000E+00  0.00000000E+00
  0.00000000E+00  0.00000000E+00  0.00000000E+00
  0.00000000E+00  0.00000000E+00  0.00000000E+00
  0.00000000E+00  0.00000000E+00  0.00000000E+00
  0.00000000E+00  0.00000000E+00  0.00000000E+00
  0.00000000E+00  0.00000000E+00  0.00000000E+00
  0.00000000E+00  0.00000000E+00  0.00000000E+00
  0.00000000E+00  0.00000000E+00  0.00000000E+00
  0.00000000E+00  0.00000000E+00  0.00000000E+00
  0.00000000E+00  0.00000000E+00  0.00000000E+00
  0.00000000E+00  0.00000000E+00  0.00000000E+00
  0.00000000E+00  0.00000000E+00  0.00000000E+00
  0.00000000E+00  0.00000000E+00  0.00000000E+00
  0.00000000E+00  0.00000000E+00  0.00000000E+00
  0.00000000E+00  0.00000000E+00  0.00000000E+00
