Lithium cobalt oxide                    
   1.00000000000000     
     2.8137916489791315    0.0000244377570800    0.0000032980699811
    -1.4068746610470959    2.4368273436108039   -0.0000033719029769
     0.0000165458346007   -0.0000099792861398   13.9390709677063640
   Li   Co   O 
     3     3     6
Direct
  0.0000000071120922  0.9999999991419699  0.0000000029374547
  0.6666666946489030  0.3333333446694979  0.3333333331761850
  0.3333333385889361  0.6666666848463123  0.6666666800854557
  0.0000000387925709  0.0000000864581438  0.4999999931720254
  0.6666667270854703  0.3333333614747147  0.8333331795287720
  0.3333333811840973  0.6666666949744169  0.1666667764615823
  0.0000004145752186  0.9999995653759299  0.2397474015208303
  0.9999995573388674  0.0000004323702854  0.7602525996486307
  0.6666670867152860  0.3333328955414814  0.5730810726406261
  0.6666662298993558  0.3333337397545435  0.0935854814541770
  0.3333337151903351  0.6666662365370328  0.9064144776883936
  0.3333329288688844  0.6666670788556885  0.4269190086858643
 
  0.00000000E+00  0.00000000E+00  0.00000000E+00
  0.00000000E+00  0.00000000E+00  0.00000000E+00
  0.00000000E+00  0.00000000E+00  0.00000000E+00
  0.00000000E+00  0.00000000E+00  0.00000000E+00
  0.00000000E+00  0.00000000E+00  0.00000000E+00
  0.00000000E+00  0.00000000E+00  0.00000000E+00
  0.00000000E+00  0.00000000E+00  0.00000000E+00
  0.00000000E+00  0.00000000E+00  0.00000000E+00
  0.00000000E+00  0.00000000E+00  0.00000000E+00
  0.00000000E+00  0.00000000E+00  0.00000000E+00
  0.00000000E+00  0.00000000E+00  0.00000000E+00
  0.00000000E+00  0.00000000E+00  0.00000000E+00
