Lithium cobalt oxide
1.0
        2.8160998821         0.0000000000         0.0000000000
       -1.4080499411         2.4388140375         0.0000000000
        0.0000000000         0.0000000000        14.0536003113
   Li   Co    O
    3    3    6
Direct
     0.000000000         0.000000000         0.000000000
     0.666666687         0.333333343         0.333333343
     0.333333343         0.666666687         0.666666687
     0.000000000         0.000000000         0.500000000
     0.666666687         0.333333343         0.833333313
     0.333333343         0.666666687         0.166666672
     0.000000000         0.000000000         0.239510000
     0.000000000         0.000000000         0.760490000
     0.666666687         0.333333343         0.572843313
     0.666666687         0.333333343         0.093823336
     0.333333343         0.666666687         0.906176686
     0.333333343         0.666666687         0.427156657
