Dilithium oxide                         
   1.00000000000000     
     4.5724655617419554   -0.0000000965576295    0.0000001222921827
    -0.0000000965102118    4.5724652234957039   -0.0000001296601665
     0.0000001223086564   -0.0000001296319520    4.5724649025427793
   Li   O 
     8     4
Direct
  0.2499999196620948  0.2499998773452745  0.2499999284436853
  0.7500000795995518  0.7500001237888299  0.7500000653189787
  0.7500000820026074  0.7500001308168649  0.2499999331499367
  0.2499999154030519  0.2499998743507419  0.7500000557271349
  0.7500000849631050  0.2499998661186638  0.7500000518877528
  0.2499999262742492  0.7500001247808044  0.2499999371324364
  0.2499999080555924  0.7500001448691620  0.7500000568552920
  0.7500001015440887  0.2499998605369740  0.2499999428679871
  0.9999999860686231  0.9999999498769512  0.0000000042802100
  0.9999999730459876  0.5000000284422654  0.5000000155196034
  0.4999999834739057  0.0000000554298083  0.5000000307120231
  0.5000000399071425  0.4999999636436527  0.9999999781049524
 
  0.00000000E+00  0.00000000E+00  0.00000000E+00
  0.00000000E+00  0.00000000E+00  0.00000000E+00
  0.00000000E+00  0.00000000E+00  0.00000000E+00
  0.00000000E+00  0.00000000E+00  0.00000000E+00
  0.00000000E+00  0.00000000E+00  0.00000000E+00
  0.00000000E+00  0.00000000E+00  0.00000000E+00
  0.00000000E+00  0.00000000E+00  0.00000000E+00
  0.00000000E+00  0.00000000E+00  0.00000000E+00
  0.00000000E+00  0.00000000E+00  0.00000000E+00
  0.00000000E+00  0.00000000E+00  0.00000000E+00
  0.00000000E+00  0.00000000E+00  0.00000000E+00
  0.00000000E+00  0.00000000E+00  0.00000000E+00
