Dilithium oxide                         
   1.00000000000000     
     4.5724655617419554   -0.0000000965576295    0.0000001222921827
    -0.0000000965102118    4.5724652234957039   -0.0000001296601665
     0.0000001223086564   -0.0000001296319520    4.5724649025427793
   Li   O 
     8     4
Direct
  0.2499999196620949  0.2499998773452754  0.2499999284436861
  0.7500000795995502  0.7500001237888299  0.7500000653189786
  0.7500000820026059  0.7500001308168673  0.2499999331499402
  0.2499999154030532  0.2499998743507390  0.7500000557271342
  0.7500000849631048  0.2499998661186668  0.7500000518877551
  0.2499999262742494  0.7500001247808069  0.2499999371324334
  0.2499999080555942  0.7500001448691619  0.7500000568552893
  0.7500001015440912  0.2499998605369747  0.2499999428679883
 -0.0000000139313804 -0.0000000501230505  0.0000000042802123
 -0.0000000269540135  0.5000000284422660  0.5000000155196054
  0.4999999834739063  0.0000000554298087  0.5000000307120238
  0.5000000399071435  0.4999999636436539 -0.0000000218950465
 
  0.00000000E+00  0.00000000E+00  0.00000000E+00
  0.00000000E+00  0.00000000E+00  0.00000000E+00
  0.00000000E+00  0.00000000E+00  0.00000000E+00
  0.00000000E+00  0.00000000E+00  0.00000000E+00
  0.00000000E+00  0.00000000E+00  0.00000000E+00
  0.00000000E+00  0.00000000E+00  0.00000000E+00
  0.00000000E+00  0.00000000E+00  0.00000000E+00
  0.00000000E+00  0.00000000E+00  0.00000000E+00
  0.00000000E+00  0.00000000E+00  0.00000000E+00
  0.00000000E+00  0.00000000E+00  0.00000000E+00
  0.00000000E+00  0.00000000E+00  0.00000000E+00
  0.00000000E+00  0.00000000E+00  0.00000000E+00
