Mn8 O8                                  
   1.00000000000000     
    -4.4579875022857429   -4.4580011135195594    0.0001602676632651
    -4.4579879155497926    0.0001605528788026   -4.4580024382590411
    -0.0839408408381272   -4.3738994927734272   -4.3739009868476817
   Mn   O 
     8     8
Direct
  0.0000014523804381  0.9999964308663394  0.0000015550683443
  0.9999998950754474  0.0000002062084619  0.4999999559736708
  0.9999999619241819  0.5000002744098140  0.9999998796884029
  0.9999999412571086  0.5000002263384431  0.4999999259313412
  0.4999999423766965  0.0000001405950556  0.9999999201666512
  0.4999999630881717  0.0000002271575283  0.4999998913948573
  0.4999998755484469  0.5000003018122996  0.9999998473136600
  0.4999998761460063  0.5000002954607652  0.4999998799971124
  0.2499999454593791  0.2500001896944752  0.2499999626890954
  0.2500000558180417  0.2500003632061407  0.7499998049134007
  0.2500000096570503  0.7500000758298881  0.2499999887123678
  0.2500000168735710  0.7500001040758235  0.7499998126474097
  0.7499998499886686  0.2500003108772333  0.2500000166457781
  0.7499994963023298  0.2500005531954343  0.7499996103027868
  0.7499998211213494  0.7500001003966617  0.2500000427707647
  0.7499998969830983  0.7500001998756289  0.7499999057843496
 
  0.00000000E+00  0.00000000E+00  0.00000000E+00
  0.00000000E+00  0.00000000E+00  0.00000000E+00
  0.00000000E+00  0.00000000E+00  0.00000000E+00
  0.00000000E+00  0.00000000E+00  0.00000000E+00
  0.00000000E+00  0.00000000E+00  0.00000000E+00
  0.00000000E+00  0.00000000E+00  0.00000000E+00
  0.00000000E+00  0.00000000E+00  0.00000000E+00
  0.00000000E+00  0.00000000E+00  0.00000000E+00
  0.00000000E+00  0.00000000E+00  0.00000000E+00
  0.00000000E+00  0.00000000E+00  0.00000000E+00
  0.00000000E+00  0.00000000E+00  0.00000000E+00
  0.00000000E+00  0.00000000E+00  0.00000000E+00
  0.00000000E+00  0.00000000E+00  0.00000000E+00
  0.00000000E+00  0.00000000E+00  0.00000000E+00
  0.00000000E+00  0.00000000E+00  0.00000000E+00
  0.00000000E+00  0.00000000E+00  0.00000000E+00
