Dimanganese(VII) oxide                  
   1.00000000000000     
     6.7220905710474907   -0.0000127622836573    0.0497354902546331
    -0.0000317541870406   16.6756731563153444    0.0000392985324625
    -1.5878634858526959    0.0000245421745230    9.0631837804029924
   Mn   O 
    16    56
Direct
  0.3567898271660113  0.2534883481874530  0.5468084220590512
  0.6432104463945407  0.7465120634906413  0.4531903575866139
  0.6432112313688165  0.7534855906583076  0.9531904117035381
  0.3567905122123065  0.2465150073338762  0.0468104723425782
  0.9220526701145531  0.2537694209546260  0.3886980254901502
  0.0779469105585733  0.7462302447431313  0.6113014380335784
  0.0779465454481780  0.7537678995300610  0.1113017852689850
  0.9220535170128343  0.2462322760214590  0.8887009870707772
  0.7866652521399544  0.5029290937122539  0.6733810434064083
  0.2133350855278593  0.4970697700601789  0.3266183103815337
  0.2133337279712109  0.0029301551675829  0.8266193195218818
  0.7866636361071357  0.9970706086499206  0.1733795413040653
  0.2216218957634482  0.5025194859222140  0.8307527600453852
  0.7783778641974592  0.4974806150760358  0.1692488930076692
  0.7783785015007751  0.0025200636377605  0.6692521869503167
  0.2216220050247628  0.9974801080277231  0.3307454476138503
  0.1386843569589828  0.2020904563379986  0.4683184650060213
  0.8613160987931465  0.7979095081009362  0.5316809167161196
  0.8613157705072396  0.7020881839506927  0.0316820890827927
  0.1386856521169761  0.2979121859470979  0.9683200423301130
  0.4255909270358202  0.3075319844283086  0.4238852925974825
  0.5744071551491601  0.6924686823674335  0.5761132356291512
  0.5744070168808264  0.8075307588325131  0.0761157223916555
  0.4255924575742611  0.1924692577216973  0.9238851645414030
  0.5223491985185973  0.1897258889836735  0.6062910678293747
  0.4776525603047617  0.8102748927972812  0.3937060830676842
  0.4776507308841502  0.6897234040954103  0.8937073701557239
  0.5223525864607979  0.3102759404548294  0.1062977409907333
  0.3024601026597153  0.3072896605696656  0.6754326011112681
  0.6975398771701862  0.6927101655470977  0.3245666765732977
  0.6975402104520256  0.8072867528545444  0.8245710257202319
  0.3024593247761516  0.1927130442228560  0.1754300373728270
  0.8577743937398381  0.3107261689880687  0.5092172206593446
  0.1422239270698284  0.6892729081078244  0.4907826136246740
  0.1422228966600159  0.8107254930800067  0.9907863271516320
  0.8577754694352961  0.1892756227990731  0.0092176327506621
  0.7536985529270694  0.1902288433796997  0.3340132943267875
  0.2463022997798916  0.8097702757599805  0.6659856270169016
  0.2463025736059663  0.6902281260362599  0.1659859033312969
  0.7536986709851661  0.3097725134522022  0.8340161016044618
  0.9756955414734421  0.3048231835948485  0.2562501742377208
  0.0243028683322351  0.6951770183268238  0.7437495687020359
  0.0243002239213510  0.8048214277609844  0.2437508266359671
  0.9756985442163355  0.1951780459884134  0.7562524757283668
  0.0037325499590750  0.4511358887869505  0.7522846219784682
  0.9962684501418835  0.5488635588410204  0.2477161898767406
  0.9962676770524439  0.9511357435513332  0.7477182376851843
  0.0037316368261742  0.0488645480202408  0.2522809179669494
  0.8393667371922504  0.5543621707186261  0.5410955126260220
  0.1606347216290800  0.4456374189369114  0.4589054890048416
  0.1606330206454842  0.0543633379317683  0.9589062580188852
  0.8393652295850700  0.9456366618620109  0.0410942062002633
  0.6177584829181413  0.4396344589892394  0.6188261739281202
  0.3822461754925612  0.5603631933021092  0.3811705126151921
  0.3822443220096829  0.9396359816504400  0.8811725557580772
  0.6177555136890049  0.0603652088204996  0.1188247605069535
  0.7234428609768528  0.5595998443580683  0.7947396824430939
  0.2765549899227651  0.4403977511519983  0.2052605258485087
  0.2765526909460618  0.0596004061076201  0.7052619332499575
  0.7234431974733724  0.9404012117528353  0.2947376249394367
  0.2914709255968901  0.5563019115329126  0.7079059938331085
  0.7085301019275292  0.4436980886243447  0.2920956850530700
  0.7085306353984251  0.0563034600171335  0.7920997448896117
  0.2914677471995333  0.9436975480333132  0.2078962403230378
  0.3865059310664236  0.4385800589965640  0.8908873441900198
  0.6134940943291483  0.5614207676904286  0.1091158551760074
  0.6134940054961433  0.9385801621542313  0.6091165061242307
  0.3865076103158742  0.0614196198042478  0.3908785848972371
  0.1667723417169640  0.5565433061101004  0.9589117481590037
  0.8332248082761353  0.4434569313640679  0.0410883305284173
  0.8332283026479530  0.0565416769157210  0.5410924671177710
  0.1667755246714506  0.9434579383157526  0.4589055983896984
 
  0.00000000E+00  0.00000000E+00  0.00000000E+00
  0.00000000E+00  0.00000000E+00  0.00000000E+00
  0.00000000E+00  0.00000000E+00  0.00000000E+00
  0.00000000E+00  0.00000000E+00  0.00000000E+00
  0.00000000E+00  0.00000000E+00  0.00000000E+00
  0.00000000E+00  0.00000000E+00  0.00000000E+00
  0.00000000E+00  0.00000000E+00  0.00000000E+00
  0.00000000E+00  0.00000000E+00  0.00000000E+00
  0.00000000E+00  0.00000000E+00  0.00000000E+00
  0.00000000E+00  0.00000000E+00  0.00000000E+00
  0.00000000E+00  0.00000000E+00  0.00000000E+00
  0.00000000E+00  0.00000000E+00  0.00000000E+00
  0.00000000E+00  0.00000000E+00  0.00000000E+00
  0.00000000E+00  0.00000000E+00  0.00000000E+00
  0.00000000E+00  0.00000000E+00  0.00000000E+00
  0.00000000E+00  0.00000000E+00  0.00000000E+00
  0.00000000E+00  0.00000000E+00  0.00000000E+00
  0.00000000E+00  0.00000000E+00  0.00000000E+00
  0.00000000E+00  0.00000000E+00  0.00000000E+00
  0.00000000E+00  0.00000000E+00  0.00000000E+00
  0.00000000E+00  0.00000000E+00  0.00000000E+00
  0.00000000E+00  0.00000000E+00  0.00000000E+00
  0.00000000E+00  0.00000000E+00  0.00000000E+00
  0.00000000E+00  0.00000000E+00  0.00000000E+00
  0.00000000E+00  0.00000000E+00  0.00000000E+00
  0.00000000E+00  0.00000000E+00  0.00000000E+00
  0.00000000E+00  0.00000000E+00  0.00000000E+00
  0.00000000E+00  0.00000000E+00  0.00000000E+00
  0.00000000E+00  0.00000000E+00  0.00000000E+00
  0.00000000E+00  0.00000000E+00  0.00000000E+00
  0.00000000E+00  0.00000000E+00  0.00000000E+00
  0.00000000E+00  0.00000000E+00  0.00000000E+00
  0.00000000E+00  0.00000000E+00  0.00000000E+00
  0.00000000E+00  0.00000000E+00  0.00000000E+00
  0.00000000E+00  0.00000000E+00  0.00000000E+00
  0.00000000E+00  0.00000000E+00  0.00000000E+00
  0.00000000E+00  0.00000000E+00  0.00000000E+00
  0.00000000E+00  0.00000000E+00  0.00000000E+00
  0.00000000E+00  0.00000000E+00  0.00000000E+00
  0.00000000E+00  0.00000000E+00  0.00000000E+00
  0.00000000E+00  0.00000000E+00  0.00000000E+00
  0.00000000E+00  0.00000000E+00  0.00000000E+00
  0.00000000E+00  0.00000000E+00  0.00000000E+00
  0.00000000E+00  0.00000000E+00  0.00000000E+00
  0.00000000E+00  0.00000000E+00  0.00000000E+00
  0.00000000E+00  0.00000000E+00  0.00000000E+00
  0.00000000E+00  0.00000000E+00  0.00000000E+00
  0.00000000E+00  0.00000000E+00  0.00000000E+00
  0.00000000E+00  0.00000000E+00  0.00000000E+00
  0.00000000E+00  0.00000000E+00  0.00000000E+00
  0.00000000E+00  0.00000000E+00  0.00000000E+00
  0.00000000E+00  0.00000000E+00  0.00000000E+00
  0.00000000E+00  0.00000000E+00  0.00000000E+00
  0.00000000E+00  0.00000000E+00  0.00000000E+00
  0.00000000E+00  0.00000000E+00  0.00000000E+00
  0.00000000E+00  0.00000000E+00  0.00000000E+00
  0.00000000E+00  0.00000000E+00  0.00000000E+00
  0.00000000E+00  0.00000000E+00  0.00000000E+00
  0.00000000E+00  0.00000000E+00  0.00000000E+00
  0.00000000E+00  0.00000000E+00  0.00000000E+00
  0.00000000E+00  0.00000000E+00  0.00000000E+00
  0.00000000E+00  0.00000000E+00  0.00000000E+00
  0.00000000E+00  0.00000000E+00  0.00000000E+00
  0.00000000E+00  0.00000000E+00  0.00000000E+00
  0.00000000E+00  0.00000000E+00  0.00000000E+00
  0.00000000E+00  0.00000000E+00  0.00000000E+00
  0.00000000E+00  0.00000000E+00  0.00000000E+00
  0.00000000E+00  0.00000000E+00  0.00000000E+00
  0.00000000E+00  0.00000000E+00  0.00000000E+00
  0.00000000E+00  0.00000000E+00  0.00000000E+00
  0.00000000E+00  0.00000000E+00  0.00000000E+00
  0.00000000E+00  0.00000000E+00  0.00000000E+00
