Dimanganese(VII) oxide                  
   1.00000000000000     
     6.7219873563720318   -0.0000183048642756    0.0496833931141117
    -0.0000456752500595   16.6762342958864913    0.0000623616639236
    -1.5879127087073279    0.0000384036482960    9.0636394968519305
   Mn   O 
    16    56
Direct
  0.3567325626664974  0.2534664951134395  0.5468002745437104
  0.6432675305597588  0.7465335820931481  0.4531985320905811
  0.6432700269902549  0.7534646147152420  0.9531943093485613
  0.3567313813293069  0.2465354895192461  0.0468072379157308
  0.9220758476173297  0.2537592561052934  0.3887051708605414
  0.0779236799958255  0.7462402751949755  0.6112942205033354
  0.0779240966971477  0.7537585828631095  0.1112903037884613
  0.9220767631584976  0.2462418755060418  0.8887121997731656
  0.7867316938566963  0.5029240276276222  0.6733966593740974
  0.2132698115628377  0.4970746949100706  0.3266034124266161
  0.2132707504594342  0.0029246270888527  0.8265992172075043
  0.7867286197643563  0.9970762304850499  0.1734010863017913
  0.2216125101167361  0.5025132747676392  0.8307366852586647
  0.7783863418793814  0.4974867939363949  0.1692636470960369
  0.7783888513149592  0.0025128013170130  0.6692610101839369
  0.2216100801615374  0.9974875877840977  0.3307361280075049
  0.1387333393869114  0.2021026601739798  0.4683378131353813
  0.8612675173645892  0.7978973119717190  0.5316617840915836
  0.8612671672117296  0.7021005044678099  0.0316628046480339
  0.1387344595783961  0.2978999897569694  0.9683394545896411
  0.4255531473312717  0.3075093349773292  0.4239099458133167
  0.5744450429524591  0.6924914094447373  0.5760883458190904
  0.5744445545102055  0.8075083093870498  0.0760909450104973
  0.4255548155705244  0.1924914635283502  0.9239094687646603
  0.5223284785360481  0.1897337838921014  0.6063014365348549
  0.4776735760180408  0.8102671459848354  0.3936964567137586
  0.4776712346885341  0.6897314880362673  0.8936962010867252
  0.5223305853399992  0.3102674569508050  0.1063072214481102
  0.3024525059874704  0.3072804377668851  0.6753951837081031
  0.6975473570382840  0.6927194609677374  0.3246042501568599
  0.6975472352314539  0.8072776927427958  0.8246081338210310
  0.3024523273929406  0.1927220813915695  0.1753931943552844
  0.8577885735618667  0.3107317626913966  0.5091986780734137
  0.1422097317485199  0.6892672662469747  0.4908011533749591
  0.1422085256266050  0.8107310784802297  0.9908053856892666
  0.8577896983397645  0.1892701578393226  0.0091979698766398
  0.7537087098942206  0.1902211613826831  0.3340180793761087
  0.2462921780307760  0.8097779529518877  0.6659807646280101
  0.2462920486488191  0.6902205230961352  0.1659811040870282
  0.7537092819116731  0.3097799753959473  0.8340211021420750
  0.9756935049857355  0.3048153977390836  0.2562603132017957
  0.0243048058901475  0.6951848016708601  0.7437393805727879
  0.0243019512309010  0.8048141618092267  0.2437413370730872
  0.9756968953767563  0.1951851096600022  0.7562617548558096
  0.0036616690950756  0.4511372468329797  0.7522676627688353
  0.9963394349570925  0.5488625020511656  0.2477334046817286
  0.9963390259157042  0.9511367103158995  0.7477352632536580
  0.0036608331848873  0.0488632698893299  0.2522638118226830
  0.8393708609957783  0.5543633841162787  0.5411151755788119
  0.1606307471304753  0.4456362472951562  0.4588854172386430
  0.1606281315183368  0.0543647297243050  0.9588873444175897
  0.8393699354829222  0.9456353198200902  0.0411129241935246
  0.6177472616399519  0.4396455213291219  0.6188247610748757
  0.3822567966495211  0.5603522491460066  0.3811719543877776
  0.3822549170386107  0.9396469547672670  0.8811730222227682
  0.6177442923759916  0.0603543598085974  0.1188237537138747
  0.7234568809495003  0.5595888430849789  0.7947344009577985
  0.2765411275228706  0.4404086393584101  0.2052659229919210
  0.2765381009786762  0.0595892440958097  0.7052670637085293
  0.7234573521653251  0.9404124185514068  0.2947324352912093
  0.2914749442676212  0.5563008161431612  0.7079149205060903
  0.7085265413218935  0.4436992598493927  0.2920870286945787
  0.7085266009765989  0.0563023207304118  0.7920915804172175
  0.2914721391496497  0.9436990099694361  0.2079045528194587
  0.3865264416819674  0.4385672841623057  0.8908827531290071
  0.6134734309286601  0.5614337160336141  0.1091207537448446
  0.6134735861929420  0.9385673295362218  0.6091214379993408
  0.3865272912318566  0.0614327255079033  0.3908745194495133
  0.1667830018154347  0.5565421823232560  0.9589167036664904
  0.8332143346447280  0.4434580854650111  0.0410835055193131
  0.8332175413137805  0.0565401730625346  0.5410879245701004
  0.1667868833589671  0.9434593675979972  0.4589102438516783
 
  0.00000000E+00  0.00000000E+00  0.00000000E+00
  0.00000000E+00  0.00000000E+00  0.00000000E+00
  0.00000000E+00  0.00000000E+00  0.00000000E+00
  0.00000000E+00  0.00000000E+00  0.00000000E+00
  0.00000000E+00  0.00000000E+00  0.00000000E+00
  0.00000000E+00  0.00000000E+00  0.00000000E+00
  0.00000000E+00  0.00000000E+00  0.00000000E+00
  0.00000000E+00  0.00000000E+00  0.00000000E+00
  0.00000000E+00  0.00000000E+00  0.00000000E+00
  0.00000000E+00  0.00000000E+00  0.00000000E+00
  0.00000000E+00  0.00000000E+00  0.00000000E+00
  0.00000000E+00  0.00000000E+00  0.00000000E+00
  0.00000000E+00  0.00000000E+00  0.00000000E+00
  0.00000000E+00  0.00000000E+00  0.00000000E+00
  0.00000000E+00  0.00000000E+00  0.00000000E+00
  0.00000000E+00  0.00000000E+00  0.00000000E+00
  0.00000000E+00  0.00000000E+00  0.00000000E+00
  0.00000000E+00  0.00000000E+00  0.00000000E+00
  0.00000000E+00  0.00000000E+00  0.00000000E+00
  0.00000000E+00  0.00000000E+00  0.00000000E+00
  0.00000000E+00  0.00000000E+00  0.00000000E+00
  0.00000000E+00  0.00000000E+00  0.00000000E+00
  0.00000000E+00  0.00000000E+00  0.00000000E+00
  0.00000000E+00  0.00000000E+00  0.00000000E+00
  0.00000000E+00  0.00000000E+00  0.00000000E+00
  0.00000000E+00  0.00000000E+00  0.00000000E+00
  0.00000000E+00  0.00000000E+00  0.00000000E+00
  0.00000000E+00  0.00000000E+00  0.00000000E+00
  0.00000000E+00  0.00000000E+00  0.00000000E+00
  0.00000000E+00  0.00000000E+00  0.00000000E+00
  0.00000000E+00  0.00000000E+00  0.00000000E+00
  0.00000000E+00  0.00000000E+00  0.00000000E+00
  0.00000000E+00  0.00000000E+00  0.00000000E+00
  0.00000000E+00  0.00000000E+00  0.00000000E+00
  0.00000000E+00  0.00000000E+00  0.00000000E+00
  0.00000000E+00  0.00000000E+00  0.00000000E+00
  0.00000000E+00  0.00000000E+00  0.00000000E+00
  0.00000000E+00  0.00000000E+00  0.00000000E+00
  0.00000000E+00  0.00000000E+00  0.00000000E+00
  0.00000000E+00  0.00000000E+00  0.00000000E+00
  0.00000000E+00  0.00000000E+00  0.00000000E+00
  0.00000000E+00  0.00000000E+00  0.00000000E+00
  0.00000000E+00  0.00000000E+00  0.00000000E+00
  0.00000000E+00  0.00000000E+00  0.00000000E+00
  0.00000000E+00  0.00000000E+00  0.00000000E+00
  0.00000000E+00  0.00000000E+00  0.00000000E+00
  0.00000000E+00  0.00000000E+00  0.00000000E+00
  0.00000000E+00  0.00000000E+00  0.00000000E+00
  0.00000000E+00  0.00000000E+00  0.00000000E+00
  0.00000000E+00  0.00000000E+00  0.00000000E+00
  0.00000000E+00  0.00000000E+00  0.00000000E+00
  0.00000000E+00  0.00000000E+00  0.00000000E+00
  0.00000000E+00  0.00000000E+00  0.00000000E+00
  0.00000000E+00  0.00000000E+00  0.00000000E+00
  0.00000000E+00  0.00000000E+00  0.00000000E+00
  0.00000000E+00  0.00000000E+00  0.00000000E+00
  0.00000000E+00  0.00000000E+00  0.00000000E+00
  0.00000000E+00  0.00000000E+00  0.00000000E+00
  0.00000000E+00  0.00000000E+00  0.00000000E+00
  0.00000000E+00  0.00000000E+00  0.00000000E+00
  0.00000000E+00  0.00000000E+00  0.00000000E+00
  0.00000000E+00  0.00000000E+00  0.00000000E+00
  0.00000000E+00  0.00000000E+00  0.00000000E+00
  0.00000000E+00  0.00000000E+00  0.00000000E+00
  0.00000000E+00  0.00000000E+00  0.00000000E+00
  0.00000000E+00  0.00000000E+00  0.00000000E+00
  0.00000000E+00  0.00000000E+00  0.00000000E+00
  0.00000000E+00  0.00000000E+00  0.00000000E+00
  0.00000000E+00  0.00000000E+00  0.00000000E+00
  0.00000000E+00  0.00000000E+00  0.00000000E+00
  0.00000000E+00  0.00000000E+00  0.00000000E+00
  0.00000000E+00  0.00000000E+00  0.00000000E+00
