Titanium oxide                          
   1.00000000000000     
     4.6206433805793212   -0.0000001025866942    0.0000000625330936
    -0.0000001030716209    4.6206434362604423    0.0000002121588875
     0.0000000406160347    0.0000001375286328    2.9932245577606502
   Ti   O 
     2     4
Direct
  0.0000006511784321  0.0000001130331384  0.9999998798318259
  0.4999996690504744  0.5000002300271689  0.5000001764290545
  0.3045912223803242  0.3045911574428004  0.9999999037832055
  0.6954085092692424  0.6954084607815361  0.0000000164795964
  0.1954086173476597  0.8045913654306958  0.5000000014543176
  0.8045913307738601  0.1954086732846676  0.5000000220219931
 
  0.00000000E+00  0.00000000E+00  0.00000000E+00
  0.00000000E+00  0.00000000E+00  0.00000000E+00
  0.00000000E+00  0.00000000E+00  0.00000000E+00
  0.00000000E+00  0.00000000E+00  0.00000000E+00
  0.00000000E+00  0.00000000E+00  0.00000000E+00
  0.00000000E+00  0.00000000E+00  0.00000000E+00
