Copper(I) oxide                         
   1.00000000000000     
     4.2272891867656037   -0.0000045407589850    0.0000077867927430
    -0.0000045411709033    4.2272907802839264    0.0000032602880523
     0.0000077924724176    0.0000032641940460    4.2273000890424939
   Cu   O 
     4     2
Direct
  0.0000000012910587 -0.0000003114171105 -0.0000000795343853
  0.5000000872060554  0.4999998089405286  0.0000004487778200
  0.5000000803185864  0.0000001736930408  0.4999995015474675
  0.0000000199134765  0.5000002921219664  0.5000000895218462
  0.2500017633518389  0.2500042667157187  0.2499979049685390
  0.7499980479189841  0.7499957699458559  0.7500021347187056
 
  0.00000000E+00  0.00000000E+00  0.00000000E+00
  0.00000000E+00  0.00000000E+00  0.00000000E+00
  0.00000000E+00  0.00000000E+00  0.00000000E+00
  0.00000000E+00  0.00000000E+00  0.00000000E+00
  0.00000000E+00  0.00000000E+00  0.00000000E+00
  0.00000000E+00  0.00000000E+00  0.00000000E+00
