Titanium oxide                          
   1.00000000000000     
     4.6144912101643936    0.0000000388003033    0.0000001017906973
     0.0000000387062361    4.6144934316664816   -0.0000001235855974
     0.0000000656466573   -0.0000000799521793    2.9957129480876530
   Ti   O 
     2     4
Direct
  0.0000139059946349  0.0000111774786973  0.9999998501112373
  0.5000139433168442  0.4999888613935681  0.5000001321524650
  0.3046267582279754  0.3046302968875807  0.9999999893204432
  0.6953593522148935  0.6953625177475047  0.0000000514875040
  0.1953593090077490  0.8046374508449787  0.4999999963665474
  0.8046267312379030  0.1953696956476634  0.4999999805618032
 
  0.00000000E+00  0.00000000E+00  0.00000000E+00
  0.00000000E+00  0.00000000E+00  0.00000000E+00
  0.00000000E+00  0.00000000E+00  0.00000000E+00
  0.00000000E+00  0.00000000E+00  0.00000000E+00
  0.00000000E+00  0.00000000E+00  0.00000000E+00
  0.00000000E+00  0.00000000E+00  0.00000000E+00
