Chromium(IV) oxide - prepared under pres
   1.00000000000000     
     4.4092894376073852   -0.0000284297159201    0.0000029831998261
    -0.0000284226644390    4.4092889579968082   -0.0000006118131144
     0.0000019755731567   -0.0000004034679214    2.9176477421624987
   Cr   O 
     2     4
Direct
 -0.0000008188063890 -0.0000004301856101 -0.0000000951570221
  0.5000005021581033  0.5000004532299426  0.4999999169133253
  0.3028998513054070  0.3028994604379334 -0.0000001136011587
  0.6971003344757357  0.6970999906650138  0.0000002898567435
  0.1972430609084715  0.8027573845640792  0.5000005435873885
  0.8027570699586787  0.1972431412886340  0.4999994584007306
 
  0.00000000E+00  0.00000000E+00  0.00000000E+00
  0.00000000E+00  0.00000000E+00  0.00000000E+00
  0.00000000E+00  0.00000000E+00  0.00000000E+00
  0.00000000E+00  0.00000000E+00  0.00000000E+00
  0.00000000E+00  0.00000000E+00  0.00000000E+00
  0.00000000E+00  0.00000000E+00  0.00000000E+00
