O5 V2                                   
   1.00000000000000     
    11.5993700250109892    0.0000017005861455   -0.0000114504480657
     0.0000005247102410    3.5504858203226690   -0.0000000506504790
    -0.0000042474554880   -0.0000000627598875    4.3200078692421489
   V    O 
     4    10
Direct
  0.1018230286485675  0.2499999163968241  0.8891236636062345
  0.8981766479021047  0.7500000189692386  0.1109264891045214
  0.3981785413378276  0.2500002567202060  0.8891314358696221
  0.6018214310129864  0.7500000461841481  0.1108793139635580
  0.1042841066997795  0.2499996892135599  0.5196396470405915
  0.8957162357823947  0.7500002627331099  0.4803090934726768
  0.3957156223601501  0.2499999983948342  0.5196322645462885
  0.6042841276034210  0.7499999645674933  0.4803578685858767
  0.9315934516443178  0.2499997716543731  0.0047885910190359
  0.0684067430087438  0.7500000451444393  0.9952101766906907
  0.5684069146871167  0.2499998551045053  0.0047904774498591
  0.4315931909030937  0.7500001030700147  0.9952104321008832
  0.2499986584391536  0.2500000190477252  0.9949905498594660
  0.7500013009703324  0.7500000527995283  0.0050099676906896
 
  0.00000000E+00  0.00000000E+00  0.00000000E+00
  0.00000000E+00  0.00000000E+00  0.00000000E+00
  0.00000000E+00  0.00000000E+00  0.00000000E+00
  0.00000000E+00  0.00000000E+00  0.00000000E+00
  0.00000000E+00  0.00000000E+00  0.00000000E+00
  0.00000000E+00  0.00000000E+00  0.00000000E+00
  0.00000000E+00  0.00000000E+00  0.00000000E+00
  0.00000000E+00  0.00000000E+00  0.00000000E+00
  0.00000000E+00  0.00000000E+00  0.00000000E+00
  0.00000000E+00  0.00000000E+00  0.00000000E+00
  0.00000000E+00  0.00000000E+00  0.00000000E+00
  0.00000000E+00  0.00000000E+00  0.00000000E+00
  0.00000000E+00  0.00000000E+00  0.00000000E+00
  0.00000000E+00  0.00000000E+00  0.00000000E+00
