Tripotassium manganate(V) - beta        
   1.00000000000000     
     6.5049961237373193   -0.0001750508426956    0.0001385479964904
    -0.0001755192522092    6.5048421019122999    0.0004433083212213
     0.0003124657953695   -0.0009256235456165    6.9227173678850740
   K    Mn   O 
     6     2     8
Direct
  0.0000537342538289  0.0000294317872636  0.5000193328179490
  0.5000275685721945  0.4999695765137900 -0.0000050578505482
  0.0000241190111255  0.5000297428149608  0.2499873794383580
  0.5000167632991024 -0.0000866003800663  0.7500061660990017
  0.0000155139846112  0.5000092143254881  0.7499397142355889
  0.4999896205437077  0.0000536552269307  0.2499173853258121
 -0.0000229645865287  0.0000049001517058  0.0000225584045100
  0.4999941374031600  0.4999930578019042  0.4999980468985408
  0.1517047256848766  0.1517232165757042  0.1405358315552614
  0.8482473376544608  0.8482593710911447  0.1405137559725031
  0.1516937347437387  0.8482939559599787  0.8595088383146131
  0.8482628058172057  0.1517363823674778  0.8595368287284236
  0.6517156005026923  0.6516761608972091  0.6405330976314586
  0.3482866975597036  0.3482333355784256  0.6404700831093008
  0.6517059536886756  0.3483258578545897  0.3594630962805966
  0.3482846218674646  0.6517487114334979  0.3595529430386231
 
  0.00000000E+00  0.00000000E+00  0.00000000E+00
  0.00000000E+00  0.00000000E+00  0.00000000E+00
  0.00000000E+00  0.00000000E+00  0.00000000E+00
  0.00000000E+00  0.00000000E+00  0.00000000E+00
  0.00000000E+00  0.00000000E+00  0.00000000E+00
  0.00000000E+00  0.00000000E+00  0.00000000E+00
  0.00000000E+00  0.00000000E+00  0.00000000E+00
  0.00000000E+00  0.00000000E+00  0.00000000E+00
  0.00000000E+00  0.00000000E+00  0.00000000E+00
  0.00000000E+00  0.00000000E+00  0.00000000E+00
  0.00000000E+00  0.00000000E+00  0.00000000E+00
  0.00000000E+00  0.00000000E+00  0.00000000E+00
  0.00000000E+00  0.00000000E+00  0.00000000E+00
  0.00000000E+00  0.00000000E+00  0.00000000E+00
  0.00000000E+00  0.00000000E+00  0.00000000E+00
  0.00000000E+00  0.00000000E+00  0.00000000E+00
