Tripotassium manganate(V) - beta
1.0
        5.9000000954         0.0000000000         0.0000000000
        0.0000000000         5.9000000954         0.0000000000
        0.0000000000         0.0000000000         8.0100002289
    K   Mn    O
    6    2    8
Direct
     0.000000000         0.000000000         0.500000000
     0.500000000         0.500000000         0.000000000
     0.000000000         0.500000000         0.250000000
     0.500000000         0.000000000         0.750000000
     0.000000000         0.500000000         0.750000000
     0.500000000         0.000000000         0.250000000
     0.000000000         0.000000000         0.000000000
     0.500000000         0.500000000         0.500000000
     0.170000002         0.170000002         0.094999999
     0.829999983         0.829999983         0.094999999
     0.170000002         0.829999983         0.904999971
     0.829999983         0.170000002         0.904999971
     0.670000017         0.670000017         0.595000029
     0.329999983         0.329999983         0.595000029
     0.670000017         0.329999983         0.405000001
     0.329999983         0.670000017         0.405000001
