Tripotassium manganate(V) - beta        
   1.00000000000000     
     6.5037400430704713   -0.0002175873729850    0.0000318461895554
    -0.0002176585300600    6.5037623028319338    0.0011327898536655
     0.0001204524685608   -0.0012096256599885    6.9444178802670420
   K    Mn   O 
     6     2     8
Direct
  0.9999991049245069  0.9999656486689817  0.5000761512654561
  0.4999794958230799  0.5000439813786992  0.9999557640852148
  0.0000182369136120  0.4999639328288558  0.2499403486508681
  0.5000293287471946  0.9999603966027232  0.7499495578861428
  0.0000502178442925  0.5000261688077505  0.7499040201017345
  0.5000034128705817  0.0000459768321079  0.2499951409558421
  0.9999819968005936  0.0000025467869179  0.0000261637640678
  0.4999965999126886  0.4999966219678183  0.4999901822643310
  0.1519138446454698  0.1519031694928365  0.1404468492248521
  0.8480607683065923  0.8480627784198919  0.1404101816200329
  0.1518820493735256  0.8481255595565341  0.8596016272265846
  0.8480978271402443  0.1519228245755341  0.8596391059494298
  0.6519080527437002  0.6518848348262813  0.6404338980407271
  0.3480967617309822  0.3480511834801492  0.6404043312022633
  0.6519026544762113  0.3481209162990503  0.3595839041196113
  0.3480796177467146  0.6519234294758729  0.3596427736428630
 
  0.00000000E+00  0.00000000E+00  0.00000000E+00
  0.00000000E+00  0.00000000E+00  0.00000000E+00
  0.00000000E+00  0.00000000E+00  0.00000000E+00
  0.00000000E+00  0.00000000E+00  0.00000000E+00
  0.00000000E+00  0.00000000E+00  0.00000000E+00
  0.00000000E+00  0.00000000E+00  0.00000000E+00
  0.00000000E+00  0.00000000E+00  0.00000000E+00
  0.00000000E+00  0.00000000E+00  0.00000000E+00
  0.00000000E+00  0.00000000E+00  0.00000000E+00
  0.00000000E+00  0.00000000E+00  0.00000000E+00
  0.00000000E+00  0.00000000E+00  0.00000000E+00
  0.00000000E+00  0.00000000E+00  0.00000000E+00
  0.00000000E+00  0.00000000E+00  0.00000000E+00
  0.00000000E+00  0.00000000E+00  0.00000000E+00
  0.00000000E+00  0.00000000E+00  0.00000000E+00
  0.00000000E+00  0.00000000E+00  0.00000000E+00
