Dibarium titanate - beta                
   1.00000000000000     
     6.2036283849387228    0.0000038988183277   -0.0492967467141472
     0.0000049189616961    7.7466112310493642   -0.0000026269328503
    -0.6446312038093095   -0.0000039919946503   10.6077305304166583
   Ba   Ti   O 
     8     4    16
Direct
  0.7685993659016219  0.8416197782397461  0.0743323174133153
  0.2314000306735267  0.1583802776146470  0.9256675400423688
  0.7314001386278832  0.3416199373269606  0.4256677517075644
  0.2686003466047993  0.6583789165898182  0.5743321131867987
  0.2229503020907089  0.5008520413926618  0.1995585601205931
  0.7770492279455468  0.4991478125181317  0.8004413651175568
  0.2770504226291237  0.0008526485173661  0.3004410207379564
  0.7229493297305112  0.9991472311951739  0.6995587560341221
  0.7390703874963052  0.2801589672241391  0.0825249358669211
  0.2609288090068560  0.7198421512414370  0.9174752006405171
  0.7609285499272573  0.7801600121349566  0.4174748884704016
  0.2390715105459975  0.2198390280711422  0.5825249734653895
  0.7886595733405528  0.5098412718425323  0.0652298055228044
  0.2113414638024267  0.4901586564233398  0.9347701108559292
  0.7113424481807797  0.0098396430767025  0.4347689792694993
  0.2886602633527104  0.9901591394583562  0.5652304090344487
  0.5218036831206021  0.2405418132941861  0.1888253156419637
  0.4781949342764591  0.7594603999045617  0.8111751752575458
  0.9781970711529340  0.7405415229750147  0.3111732375267238
  0.0218032965383301  0.2594577501711441  0.6888268337709960
  0.9954155664155024  0.1735955368696338  0.1367733358879946
  0.0045834591485914  0.8264048506871049  0.8632270839853433
  0.5045847337642826  0.6735944848123054  0.3632261155494447
  0.4954155176355783  0.3264037848963710  0.6367738939160361
  0.6670295856910613  0.1807423038609599  0.9268557045084620
  0.3329691542365509  0.8192611756199781  0.0731447468335489
  0.8329696056777394  0.6807384966232917  0.5731439707497543
  0.1670312224857469  0.3192603674183445  0.4268558588859932
 
  0.00000000E+00  0.00000000E+00  0.00000000E+00
  0.00000000E+00  0.00000000E+00  0.00000000E+00
  0.00000000E+00  0.00000000E+00  0.00000000E+00
  0.00000000E+00  0.00000000E+00  0.00000000E+00
  0.00000000E+00  0.00000000E+00  0.00000000E+00
  0.00000000E+00  0.00000000E+00  0.00000000E+00
  0.00000000E+00  0.00000000E+00  0.00000000E+00
  0.00000000E+00  0.00000000E+00  0.00000000E+00
  0.00000000E+00  0.00000000E+00  0.00000000E+00
  0.00000000E+00  0.00000000E+00  0.00000000E+00
  0.00000000E+00  0.00000000E+00  0.00000000E+00
  0.00000000E+00  0.00000000E+00  0.00000000E+00
  0.00000000E+00  0.00000000E+00  0.00000000E+00
  0.00000000E+00  0.00000000E+00  0.00000000E+00
  0.00000000E+00  0.00000000E+00  0.00000000E+00
  0.00000000E+00  0.00000000E+00  0.00000000E+00
  0.00000000E+00  0.00000000E+00  0.00000000E+00
  0.00000000E+00  0.00000000E+00  0.00000000E+00
  0.00000000E+00  0.00000000E+00  0.00000000E+00
  0.00000000E+00  0.00000000E+00  0.00000000E+00
  0.00000000E+00  0.00000000E+00  0.00000000E+00
  0.00000000E+00  0.00000000E+00  0.00000000E+00
  0.00000000E+00  0.00000000E+00  0.00000000E+00
  0.00000000E+00  0.00000000E+00  0.00000000E+00
  0.00000000E+00  0.00000000E+00  0.00000000E+00
  0.00000000E+00  0.00000000E+00  0.00000000E+00
  0.00000000E+00  0.00000000E+00  0.00000000E+00
  0.00000000E+00  0.00000000E+00  0.00000000E+00
