Co2 O2                                  
   1.00000000000000     
    -2.1339671772913857   -2.1311375814287068    0.0012777988916946
    -4.2453496398847630   -0.0157906274316950   -4.2448023464145201
    -0.0017924866874972   -2.1320612873315383   -2.1339178582717779
   Co   O 
     2     2
Direct
  0.9999165561764549  0.0000301786434689  0.9999585566578497
  0.9999594499353915  0.4999801183940591  0.0000084310345696
  0.5000973763536832  0.2499941484141144  0.4999590380566944
  0.5000266175344703  0.7499955545483576  0.5000739742508863
 
  0.00000000E+00  0.00000000E+00  0.00000000E+00
  0.00000000E+00  0.00000000E+00  0.00000000E+00
  0.00000000E+00  0.00000000E+00  0.00000000E+00
  0.00000000E+00  0.00000000E+00  0.00000000E+00
