Mn8 O8                                  
   1.00000000000000     
    -4.4472715248097767   -4.4474378427548968    0.0002074422035257
    -4.4472693105671963    0.0002052283896750   -4.4474380166932130
    -0.0836025276232148   -4.3636251087199938   -4.3636278881210417
   Mn   O 
     8     8
Direct
  0.9999992062956764  0.0000013651507373  0.9999988341426658
  0.0000002601103120  0.9999998393479572  0.4999999699410367
  0.9999998076773693  0.5000011877980413  0.0000000245506939
  0.0000001302307240  0.5000000759461116  0.4999998057888462
  0.5000002556271568  0.9999997999335903  0.0000000729029921
  0.5000001557158242  0.9999998119175189  0.4999999659081098
  0.5000000000349800  0.5000000794321693  0.9999999572214833
  0.5000001384445696  0.4999999991833022  0.4999999682861826
  0.2500000146246677  0.2499997338342794  0.2500001264211846
  0.2499999936376369  0.2499997145692063  0.7500001970912180
  0.2500000103473354  0.7499997614675067  0.2500001031931802
  0.2499999677470015  0.7499997425950156  0.7500002270014861
  0.7499999500188252  0.2499997662120919  0.2500001660344537
  0.7500000451739268  0.2499996504610849  0.7500002696929471
  0.7500000611999837  0.7499997651673525  0.2500000894693315
  0.7500000031140317  0.7499997069840347  0.7500002223541955
 
  0.00000000E+00  0.00000000E+00  0.00000000E+00
  0.00000000E+00  0.00000000E+00  0.00000000E+00
  0.00000000E+00  0.00000000E+00  0.00000000E+00
  0.00000000E+00  0.00000000E+00  0.00000000E+00
  0.00000000E+00  0.00000000E+00  0.00000000E+00
  0.00000000E+00  0.00000000E+00  0.00000000E+00
  0.00000000E+00  0.00000000E+00  0.00000000E+00
  0.00000000E+00  0.00000000E+00  0.00000000E+00
  0.00000000E+00  0.00000000E+00  0.00000000E+00
  0.00000000E+00  0.00000000E+00  0.00000000E+00
  0.00000000E+00  0.00000000E+00  0.00000000E+00
  0.00000000E+00  0.00000000E+00  0.00000000E+00
  0.00000000E+00  0.00000000E+00  0.00000000E+00
  0.00000000E+00  0.00000000E+00  0.00000000E+00
  0.00000000E+00  0.00000000E+00  0.00000000E+00
  0.00000000E+00  0.00000000E+00  0.00000000E+00
