Strontium iron(IV) oxide                
   1.00000000000000     
     3.8307858888002215    0.0000001072181427   -0.0000000938049065
     0.0000001071398051    3.8307863071306860    0.0000000937071660
    -0.0000000939696566    0.0000000937274287    3.8307831932413858
   Sr   Fe   O 
     1     1     3
Direct
  0.4999999369779147  0.4999999845395919  0.4999999881523891
  0.9999997788691388  0.0000000679755061  0.0000000151876023
  0.9999999448064827  0.9999999854864967  0.4999999931147698
  0.5000004203734463  0.9999999768643590  0.0000000102985567
  0.9999999189730175  0.4999999851340533  0.9999999932466821
 
  0.00000000E+00  0.00000000E+00  0.00000000E+00
  0.00000000E+00  0.00000000E+00  0.00000000E+00
  0.00000000E+00  0.00000000E+00  0.00000000E+00
  0.00000000E+00  0.00000000E+00  0.00000000E+00
  0.00000000E+00  0.00000000E+00  0.00000000E+00
