Strontium iron(IV) oxide
1.0
        3.8510000706         0.0000000000         0.0000000000
        0.0000000000         3.8510000706         0.0000000000
        0.0000000000         0.0000000000         3.8510000706
   Sr   Fe    O
    1    1    3
Direct
     0.500000000         0.500000000         0.500000000
     0.000000000         0.000000000         0.000000000
     0.000000000         0.000000000         0.500000000
     0.500000000         0.000000000         0.000000000
     0.000000000         0.500000000         0.000000000
