Vanadium(IV) oxide                      
   1.00000000000000     
     5.6780507172406249   -0.0000066579733041    0.0153191889449577
    -0.0000030921883897    4.5406441092947905   -0.0000369182957238
    -2.8519768384380910   -0.0000344092608063    4.5266029467021180
   V    O 
     4     8
Direct
  0.2461154547478444  0.9929683091742163  0.0140664979746816
  0.7530779528064500  0.0069669942319166  0.9862336943990542
  0.7530868650769378  0.4930445418027602  0.4862348395120648
  0.2461282335571511  0.5070217887938426  0.5140532592092342
  0.1023495430050900  0.2045717285695474  0.2058928669726114
  0.8982298921517042  0.7955476206463175  0.7940507955639404
  0.8982375486781677  0.7044350693149397  0.2940534243331143
  0.1023287398824237  0.2954464451231402  0.7058533414186670
  0.4003707002755235  0.6968381786039970  0.3035514499096479
  0.5998575274648630  0.3032904832008754  0.6962528044487399
  0.5998688220213282  0.1967255187811645  0.1962497063334467
  0.4003487503325260  0.8031433357572695  0.8035073269248016
 
  0.00000000E+00  0.00000000E+00  0.00000000E+00
  0.00000000E+00  0.00000000E+00  0.00000000E+00
  0.00000000E+00  0.00000000E+00  0.00000000E+00
  0.00000000E+00  0.00000000E+00  0.00000000E+00
  0.00000000E+00  0.00000000E+00  0.00000000E+00
  0.00000000E+00  0.00000000E+00  0.00000000E+00
  0.00000000E+00  0.00000000E+00  0.00000000E+00
  0.00000000E+00  0.00000000E+00  0.00000000E+00
  0.00000000E+00  0.00000000E+00  0.00000000E+00
  0.00000000E+00  0.00000000E+00  0.00000000E+00
  0.00000000E+00  0.00000000E+00  0.00000000E+00
  0.00000000E+00  0.00000000E+00  0.00000000E+00
