Automatically generated mesh
    3568
Reciprocal lattice
0.0 0.0 0.0 1
0.11111111 0.0 0.0 2
0.22222222 -0.0 -0.0 2
0.33333333 0.0 0.0 2
0.44444444 -0.0 -0.0 2
0.0 0.09090909 -0.0 2
0.11111111 0.09090909 -0.0 2
0.88888889 0.09090909 -0.0 2
0.22222222 0.09090909 -0.0 2
0.77777778 0.09090909 0.0 2
0.33333333 0.09090909 -0.0 2
0.66666667 0.09090909 -0.0 2
0.44444444 0.09090909 -0.0 2
0.55555556 0.09090909 0.0 2
0.0 0.18181818 -0.0 2
0.11111111 0.18181818 -0.0 2
0.88888889 0.18181818 0.0 2
0.22222222 0.18181818 -0.0 2
0.77777778 0.18181818 0.0 2
0.33333333 0.18181818 -0.0 2
0.66666667 0.18181818 -0.0 2
0.44444444 0.18181818 0.0 2
0.55555556 0.18181818 0.0 2
0.0 0.27272727 0.0 2
0.11111111 0.27272727 0.0 2
0.88888889 0.27272727 -0.0 2
0.22222222 0.27272727 0.0 2
0.77777778 0.27272727 -0.0 2
0.33333333 0.27272727 0.0 2
0.66666667 0.27272727 -0.0 2
0.44444444 0.27272727 0.0 2
0.55555556 0.27272727 -0.0 2
0.0 0.36363636 0.0 2
0.11111111 0.36363636 -0.0 2
0.88888889 0.36363636 -0.0 2
0.22222222 0.36363636 0.0 2
0.77777778 0.36363636 0.0 2
0.33333333 0.36363636 0.0 2
0.66666667 0.36363636 -0.0 2
0.44444444 0.36363636 0.0 2
0.55555556 0.36363636 0.0 2
0.0 0.45454545 0.0 2
0.11111111 0.45454545 0.0 2
0.88888889 0.45454545 -0.0 2
0.22222222 0.45454545 0.0 2
0.77777778 0.45454545 0.0 2
0.33333333 0.45454545 0.0 2
0.66666667 0.45454545 -0.0 2
0.44444444 0.45454545 0.0 2
0.55555556 0.45454545 0.0 2
-0.0 0.0 0.11111111 2
0.11111111 0.0 0.11111111 2
0.22222222 -0.0 0.11111111 2
0.33333333 0.0 0.11111111 2
0.44444444 0.0 0.11111111 2
0.55555556 -0.0 0.11111111 2
0.66666667 0.0 0.11111111 2
0.77777778 0.0 0.11111111 2
0.88888889 0.0 0.11111111 2
-0.0 0.09090909 0.11111111 2
0.0 0.09090909 0.88888889 2
0.11111111 0.09090909 0.11111111 2
0.88888889 0.09090909 0.88888889 2
0.22222222 0.09090909 0.11111111 2
0.77777778 0.09090909 0.88888889 2
0.33333333 0.09090909 0.11111111 2
0.66666667 0.09090909 0.88888889 2
0.44444444 0.09090909 0.11111111 2
0.55555556 0.09090909 0.88888889 2
0.55555556 0.09090909 0.11111111 2
0.44444444 0.09090909 0.88888889 2
0.66666667 0.09090909 0.11111111 2
0.33333333 0.09090909 0.88888889 2
0.77777778 0.09090909 0.11111111 2
0.22222222 0.09090909 0.88888889 2
0.88888889 0.09090909 0.11111111 2
0.11111111 0.09090909 0.88888889 2
-0.0 0.18181818 0.11111111 2
0.0 0.18181818 0.88888889 2
0.11111111 0.18181818 0.11111111 2
0.88888889 0.18181818 0.88888889 2
0.22222222 0.18181818 0.11111111 2
0.77777778 0.18181818 0.88888889 2
0.33333333 0.18181818 0.11111111 2
0.66666667 0.18181818 0.88888889 2
0.44444444 0.18181818 0.11111111 2
0.55555556 0.18181818 0.88888889 2
0.55555556 0.18181818 0.11111111 2
0.44444444 0.18181818 0.88888889 2
0.66666667 0.18181818 0.11111111 2
0.33333333 0.18181818 0.88888889 2
0.77777778 0.18181818 0.11111111 2
0.22222222 0.18181818 0.88888889 2
0.88888889 0.18181818 0.11111111 2
0.11111111 0.18181818 0.88888889 2
0.0 0.27272727 0.11111111 2
0.0 0.27272727 0.88888889 2
0.11111111 0.27272727 0.11111111 2
0.88888889 0.27272727 0.88888889 2
0.22222222 0.27272727 0.11111111 2
0.77777778 0.27272727 0.88888889 2
0.33333333 0.27272727 0.11111111 2
0.66666667 0.27272727 0.88888889 2
0.44444444 0.27272727 0.11111111 2
0.55555556 0.27272727 0.88888889 2
0.55555556 0.27272727 0.11111111 2
0.44444444 0.27272727 0.88888889 2
0.66666667 0.27272727 0.11111111 2
0.33333333 0.27272727 0.88888889 2
0.77777778 0.27272727 0.11111111 2
0.22222222 0.27272727 0.88888889 2
0.88888889 0.27272727 0.11111111 2
0.11111111 0.27272727 0.88888889 2
-0.0 0.36363636 0.11111111 2
0.0 0.36363636 0.88888889 2
0.11111111 0.36363636 0.11111111 2
0.88888889 0.36363636 0.88888889 2
0.22222222 0.36363636 0.11111111 2
0.77777778 0.36363636 0.88888889 2
0.33333333 0.36363636 0.11111111 2
0.66666667 0.36363636 0.88888889 2
0.44444444 0.36363636 0.11111111 2
0.55555556 0.36363636 0.88888889 2
0.55555556 0.36363636 0.11111111 2
0.44444444 0.36363636 0.88888889 2
0.66666667 0.36363636 0.11111111 2
0.33333333 0.36363636 0.88888889 2
0.77777778 0.36363636 0.11111111 2
0.22222222 0.36363636 0.88888889 2
0.88888889 0.36363636 0.11111111 2
0.11111111 0.36363636 0.88888889 2
0.0 0.45454545 0.11111111 2
0.0 0.45454545 0.88888889 2
0.11111111 0.45454545 0.11111111 2
0.88888889 0.45454545 0.88888889 2
0.22222222 0.45454545 0.11111111 2
0.77777778 0.45454545 0.88888889 2
0.33333333 0.45454545 0.11111111 2
0.66666667 0.45454545 0.88888889 2
0.44444444 0.45454545 0.11111111 2
0.55555556 0.45454545 0.88888889 2
0.55555556 0.45454545 0.11111111 2
0.44444444 0.45454545 0.88888889 2
0.66666667 0.45454545 0.11111111 2
0.33333333 0.45454545 0.88888889 2
0.77777778 0.45454545 0.11111111 2
0.22222222 0.45454545 0.88888889 2
0.88888889 0.45454545 0.11111111 2
0.11111111 0.45454545 0.88888889 2
-0.0 0.0 0.22222222 2
0.11111111 0.0 0.22222222 2
0.22222222 -0.0 0.22222222 2
0.33333333 0.0 0.22222222 2
0.44444444 -0.0 0.22222222 2
0.55555556 -0.0 0.22222222 2
0.66666667 0.0 0.22222222 2
0.77777778 0.0 0.22222222 2
0.88888889 0.0 0.22222222 2
-0.0 0.09090909 0.22222222 2
-0.0 0.09090909 0.77777778 2
0.11111111 0.09090909 0.22222222 2
0.88888889 0.09090909 0.77777778 2
0.22222222 0.09090909 0.22222222 2
0.77777778 0.09090909 0.77777778 2
0.33333333 0.09090909 0.22222222 2
0.66666667 0.09090909 0.77777778 2
0.44444444 0.09090909 0.22222222 2
0.55555556 0.09090909 0.77777778 2
0.55555556 0.09090909 0.22222222 2
0.44444444 0.09090909 0.77777778 2
0.66666667 0.09090909 0.22222222 2
0.33333333 0.09090909 0.77777778 2
0.77777778 0.09090909 0.22222222 2
0.22222222 0.09090909 0.77777778 2
0.88888889 0.09090909 0.22222222 2
0.11111111 0.09090909 0.77777778 2
0.0 0.18181818 0.22222222 2
0.0 0.18181818 0.77777778 2
0.11111111 0.18181818 0.22222222 2
0.88888889 0.18181818 0.77777778 2
0.22222222 0.18181818 0.22222222 2
0.77777778 0.18181818 0.77777778 2
0.33333333 0.18181818 0.22222222 2
0.66666667 0.18181818 0.77777778 2
0.44444444 0.18181818 0.22222222 2
0.55555556 0.18181818 0.77777778 2
0.55555556 0.18181818 0.22222222 2
0.44444444 0.18181818 0.77777778 2
0.66666667 0.18181818 0.22222222 2
0.33333333 0.18181818 0.77777778 2
0.77777778 0.18181818 0.22222222 2
0.22222222 0.18181818 0.77777778 2
0.88888889 0.18181818 0.22222222 2
0.11111111 0.18181818 0.77777778 2
-0.0 0.27272727 0.22222222 2
0.0 0.27272727 0.77777778 2
0.11111111 0.27272727 0.22222222 2
0.88888889 0.27272727 0.77777778 2
0.22222222 0.27272727 0.22222222 2
0.77777778 0.27272727 0.77777778 2
0.33333333 0.27272727 0.22222222 2
0.66666667 0.27272727 0.77777778 2
0.44444444 0.27272727 0.22222222 2
0.55555556 0.27272727 0.77777778 2
0.55555556 0.27272727 0.22222222 2
0.44444444 0.27272727 0.77777778 2
0.66666667 0.27272727 0.22222222 2
0.33333333 0.27272727 0.77777778 2
0.77777778 0.27272727 0.22222222 2
0.22222222 0.27272727 0.77777778 2
0.88888889 0.27272727 0.22222222 2
0.11111111 0.27272727 0.77777778 2
0.0 0.36363636 0.22222222 2
-0.0 0.36363636 0.77777778 2
0.11111111 0.36363636 0.22222222 2
0.88888889 0.36363636 0.77777778 2
0.22222222 0.36363636 0.22222222 2
0.77777778 0.36363636 0.77777778 2
0.33333333 0.36363636 0.22222222 2
0.66666667 0.36363636 0.77777778 2
0.44444444 0.36363636 0.22222222 2
0.55555556 0.36363636 0.77777778 2
0.55555556 0.36363636 0.22222222 2
0.44444444 0.36363636 0.77777778 2
0.66666667 0.36363636 0.22222222 2
0.33333333 0.36363636 0.77777778 2
0.77777778 0.36363636 0.22222222 2
0.22222222 0.36363636 0.77777778 2
0.88888889 0.36363636 0.22222222 2
0.11111111 0.36363636 0.77777778 2
-0.0 0.45454545 0.22222222 2
0.0 0.45454545 0.77777778 2
0.11111111 0.45454545 0.22222222 2
0.88888889 0.45454545 0.77777778 2
0.22222222 0.45454545 0.22222222 2
0.77777778 0.45454545 0.77777778 2
0.33333333 0.45454545 0.22222222 2
0.66666667 0.45454545 0.77777778 2
0.44444444 0.45454545 0.22222222 2
0.55555556 0.45454545 0.77777778 2
0.55555556 0.45454545 0.22222222 2
0.44444444 0.45454545 0.77777778 2
0.66666667 0.45454545 0.22222222 2
0.33333333 0.45454545 0.77777778 2
0.77777778 0.45454545 0.22222222 2
0.22222222 0.45454545 0.77777778 2
0.88888889 0.45454545 0.22222222 2
0.11111111 0.45454545 0.77777778 2
-0.0 0.0 0.33333333 2
0.11111111 0.0 0.33333333 2
0.22222222 0.0 0.33333333 2
0.33333333 0.0 0.33333333 2
0.44444444 0.0 0.33333333 2
0.55555556 0.0 0.33333333 2
0.66666667 0.0 0.33333333 2
0.77777778 0.0 0.33333333 2
0.88888889 0.0 0.33333333 2
0.0 0.09090909 0.33333333 2
0.0 0.09090909 0.66666667 2
0.11111111 0.09090909 0.33333333 2
0.88888889 0.09090909 0.66666667 2
0.22222222 0.09090909 0.33333333 2
0.77777778 0.09090909 0.66666667 2
0.33333333 0.09090909 0.33333333 2
0.66666667 0.09090909 0.66666667 2
0.44444444 0.09090909 0.33333333 2
0.55555556 0.09090909 0.66666667 2
0.55555556 0.09090909 0.33333333 2
0.44444444 0.09090909 0.66666667 2
0.66666667 0.09090909 0.33333333 2
0.33333333 0.09090909 0.66666667 2
0.77777778 0.09090909 0.33333333 2
0.22222222 0.09090909 0.66666667 2
0.88888889 0.09090909 0.33333333 2
0.11111111 0.09090909 0.66666667 2
0.0 0.18181818 0.33333333 2
0.0 0.18181818 0.66666667 2
0.11111111 0.18181818 0.33333333 2
0.88888889 0.18181818 0.66666667 2
0.22222222 0.18181818 0.33333333 2
0.77777778 0.18181818 0.66666667 2
0.33333333 0.18181818 0.33333333 2
0.66666667 0.18181818 0.66666667 2
0.44444444 0.18181818 0.33333333 2
0.55555556 0.18181818 0.66666667 2
0.55555556 0.18181818 0.33333333 2
0.44444444 0.18181818 0.66666667 2
0.66666667 0.18181818 0.33333333 2
0.33333333 0.18181818 0.66666667 2
0.77777778 0.18181818 0.33333333 2
0.22222222 0.18181818 0.66666667 2
0.88888889 0.18181818 0.33333333 2
0.11111111 0.18181818 0.66666667 2
-0.0 0.27272727 0.33333333 2
0.0 0.27272727 0.66666667 2
0.11111111 0.27272727 0.33333333 2
0.88888889 0.27272727 0.66666667 2
0.22222222 0.27272727 0.33333333 2
0.77777778 0.27272727 0.66666667 2
0.33333333 0.27272727 0.33333333 2
0.66666667 0.27272727 0.66666667 2
0.44444444 0.27272727 0.33333333 2
0.55555556 0.27272727 0.66666667 2
0.55555556 0.27272727 0.33333333 2
0.44444444 0.27272727 0.66666667 2
0.66666667 0.27272727 0.33333333 2
0.33333333 0.27272727 0.66666667 2
0.77777778 0.27272727 0.33333333 2
0.22222222 0.27272727 0.66666667 2
0.88888889 0.27272727 0.33333333 2
0.11111111 0.27272727 0.66666667 2
-0.0 0.36363636 0.33333333 2
0.0 0.36363636 0.66666667 2
0.11111111 0.36363636 0.33333333 2
0.88888889 0.36363636 0.66666667 2
0.22222222 0.36363636 0.33333333 2
0.77777778 0.36363636 0.66666667 2
0.33333333 0.36363636 0.33333333 2
0.66666667 0.36363636 0.66666667 2
0.44444444 0.36363636 0.33333333 2
0.55555556 0.36363636 0.66666667 2
0.55555556 0.36363636 0.33333333 2
0.44444444 0.36363636 0.66666667 2
0.66666667 0.36363636 0.33333333 2
0.33333333 0.36363636 0.66666667 2
0.77777778 0.36363636 0.33333333 2
0.22222222 0.36363636 0.66666667 2
0.88888889 0.36363636 0.33333333 2
0.11111111 0.36363636 0.66666667 2
-0.0 0.45454545 0.33333333 2
0.0 0.45454545 0.66666667 2
0.11111111 0.45454545 0.33333333 2
0.88888889 0.45454545 0.66666667 2
0.22222222 0.45454545 0.33333333 2
0.77777778 0.45454545 0.66666667 2
0.33333333 0.45454545 0.33333333 2
0.66666667 0.45454545 0.66666667 2
0.44444444 0.45454545 0.33333333 2
0.55555556 0.45454545 0.66666667 2
0.55555556 0.45454545 0.33333333 2
0.44444444 0.45454545 0.66666667 2
0.66666667 0.45454545 0.33333333 2
0.33333333 0.45454545 0.66666667 2
0.77777778 0.45454545 0.33333333 2
0.22222222 0.45454545 0.66666667 2
0.88888889 0.45454545 0.33333333 2
0.11111111 0.45454545 0.66666667 2
-0.0 0.0 0.44444444 2
0.11111111 0.0 0.44444444 2
0.22222222 0.0 0.44444444 2
0.33333333 0.0 0.44444444 2
0.44444444 -0.0 0.44444444 2
0.55555556 0.0 0.44444444 2
0.66666667 0.0 0.44444444 2
0.77777778 0.0 0.44444444 2
0.88888889 0.0 0.44444444 2
-0.0 0.09090909 0.44444444 2
0.0 0.09090909 0.55555556 2
0.11111111 0.09090909 0.44444444 2
0.88888889 0.09090909 0.55555556 2
0.22222222 0.09090909 0.44444444 2
0.77777778 0.09090909 0.55555556 2
0.33333333 0.09090909 0.44444444 2
0.66666667 0.09090909 0.55555556 2
0.44444444 0.09090909 0.44444444 2
0.55555556 0.09090909 0.55555556 2
0.55555556 0.09090909 0.44444444 2
0.44444444 0.09090909 0.55555556 2
0.66666667 0.09090909 0.44444444 2
0.33333333 0.09090909 0.55555556 2
0.77777778 0.09090909 0.44444444 2
0.22222222 0.09090909 0.55555556 2
0.88888889 0.09090909 0.44444444 2
0.11111111 0.09090909 0.55555556 2
-0.0 0.18181818 0.44444444 2
0.0 0.18181818 0.55555556 2
0.11111111 0.18181818 0.44444444 2
0.88888889 0.18181818 0.55555556 2
0.22222222 0.18181818 0.44444444 2
0.77777778 0.18181818 0.55555556 2
0.33333333 0.18181818 0.44444444 2
0.66666667 0.18181818 0.55555556 2
0.44444444 0.18181818 0.44444444 2
0.55555556 0.18181818 0.55555556 2
0.55555556 0.18181818 0.44444444 2
0.44444444 0.18181818 0.55555556 2
0.66666667 0.18181818 0.44444444 2
0.33333333 0.18181818 0.55555556 2
0.77777778 0.18181818 0.44444444 2
0.22222222 0.18181818 0.55555556 2
0.88888889 0.18181818 0.44444444 2
0.11111111 0.18181818 0.55555556 2
-0.0 0.27272727 0.44444444 2
0.0 0.27272727 0.55555556 2
0.11111111 0.27272727 0.44444444 2
0.88888889 0.27272727 0.55555556 2
0.22222222 0.27272727 0.44444444 2
0.77777778 0.27272727 0.55555556 2
0.33333333 0.27272727 0.44444444 2
0.66666667 0.27272727 0.55555556 2
0.44444444 0.27272727 0.44444444 2
0.55555556 0.27272727 0.55555556 2
0.55555556 0.27272727 0.44444444 2
0.44444444 0.27272727 0.55555556 2
0.66666667 0.27272727 0.44444444 2
0.33333333 0.27272727 0.55555556 2
0.77777778 0.27272727 0.44444444 2
0.22222222 0.27272727 0.55555556 2
0.88888889 0.27272727 0.44444444 2
0.11111111 0.27272727 0.55555556 2
-0.0 0.36363636 0.44444444 2
0.0 0.36363636 0.55555556 2
0.11111111 0.36363636 0.44444444 2
0.88888889 0.36363636 0.55555556 2
0.22222222 0.36363636 0.44444444 2
0.77777778 0.36363636 0.55555556 2
0.33333333 0.36363636 0.44444444 2
0.66666667 0.36363636 0.55555556 2
0.44444444 0.36363636 0.44444444 2
0.55555556 0.36363636 0.55555556 2
0.55555556 0.36363636 0.44444444 2
0.44444444 0.36363636 0.55555556 2
0.66666667 0.36363636 0.44444444 2
0.33333333 0.36363636 0.55555556 2
0.77777778 0.36363636 0.44444444 2
0.22222222 0.36363636 0.55555556 2
0.88888889 0.36363636 0.44444444 2
0.11111111 0.36363636 0.55555556 2
0.0 0.45454545 0.44444444 2
0.0 0.45454545 0.55555556 2
0.11111111 0.45454545 0.44444444 2
0.88888889 0.45454545 0.55555556 2
0.22222222 0.45454545 0.44444444 2
0.77777778 0.45454545 0.55555556 2
0.33333333 0.45454545 0.44444444 2
0.66666667 0.45454545 0.55555556 2
0.44444444 0.45454545 0.44444444 2
0.55555556 0.45454545 0.55555556 2
0.55555556 0.45454545 0.44444444 2
0.44444444 0.45454545 0.55555556 2
0.66666667 0.45454545 0.44444444 2
0.33333333 0.45454545 0.55555556 2
0.77777778 0.45454545 0.44444444 2
0.22222222 0.45454545 0.55555556 2
0.88888889 0.45454545 0.44444444 2
0.11111111 0.45454545 0.55555556 2
0.05555556 0.0 -0.0 0
0.16666667 0.0 -0.0 0
0.27777778 0.0 -0.0 0
0.38888889 0.0 0.0 0
0.5 0.0 -0.0 0
-0.0 0.04545455 -0.0 0
0.05555556 0.04545455 -0.0 0
0.94444444 0.04545455 0.0 0
0.11111111 0.04545455 -0.0 0
0.88888889 0.04545455 0.0 0
0.16666667 0.04545455 0.0 0
0.83333333 0.04545455 -0.0 0
0.22222222 0.04545455 -0.0 0
0.77777778 0.04545455 0.0 0
0.27777778 0.04545455 -0.0 0
0.72222222 0.04545455 0.0 0
0.33333333 0.04545455 -0.0 0
0.66666667 0.04545455 0.0 0
0.38888889 0.04545455 0.0 0
0.61111111 0.04545455 -0.0 0
0.44444444 0.04545455 -0.0 0
0.55555556 0.04545455 0.0 0
0.5 0.04545455 0.0 0
0.05555556 0.09090909 -0.0 0
0.94444444 0.09090909 -0.0 0
0.16666667 0.09090909 -0.0 0
0.83333333 0.09090909 0.0 0
0.27777778 0.09090909 -0.0 0
0.72222222 0.09090909 0.0 0
0.38888889 0.09090909 0.0 0
0.61111111 0.09090909 0.0 0
0.5 0.09090909 -0.0 0
-0.0 0.13636364 -0.0 0
0.05555556 0.13636364 -0.0 0
0.94444444 0.13636364 0.0 0
0.11111111 0.13636364 -0.0 0
0.88888889 0.13636364 -0.0 0
0.16666667 0.13636364 0.0 0
0.83333333 0.13636364 -0.0 0
0.22222222 0.13636364 -0.0 0
0.77777778 0.13636364 0.0 0
0.27777778 0.13636364 0.0 0
0.72222222 0.13636364 0.0 0
0.33333333 0.13636364 -0.0 0
0.66666667 0.13636364 0.0 0
0.38888889 0.13636364 0.0 0
0.61111111 0.13636364 -0.0 0
0.44444444 0.13636364 -0.0 0
0.55555556 0.13636364 0.0 0
0.5 0.13636364 0.0 0
0.05555556 0.18181818 -0.0 0
0.94444444 0.18181818 -0.0 0
0.16666667 0.18181818 -0.0 0
0.83333333 0.18181818 -0.0 0
0.27777778 0.18181818 -0.0 0
0.72222222 0.18181818 -0.0 0
0.38888889 0.18181818 0.0 0
0.61111111 0.18181818 0.0 0
0.5 0.18181818 -0.0 0
0.0 0.22727273 -0.0 0
0.05555556 0.22727273 -0.0 0
0.94444444 0.22727273 0.0 0
0.11111111 0.22727273 -0.0 0
0.88888889 0.22727273 0.0 0
0.16666667 0.22727273 0.0 0
0.83333333 0.22727273 -0.0 0
0.22222222 0.22727273 -0.0 0
0.77777778 0.22727273 -0.0 0
0.27777778 0.22727273 0.0 0
0.72222222 0.22727273 0.0 0
0.33333333 0.22727273 -0.0 0
0.66666667 0.22727273 -0.0 0
0.38888889 0.22727273 0.0 0
0.61111111 0.22727273 -0.0 0
0.44444444 0.22727273 -0.0 0
0.55555556 0.22727273 0.0 0
0.5 0.22727273 0.0 0
0.05555556 0.27272727 -0.0 0
0.94444444 0.27272727 -0.0 0
0.16666667 0.27272727 0.0 0
0.83333333 0.27272727 -0.0 0
0.27777778 0.27272727 -0.0 0
0.72222222 0.27272727 -0.0 0
0.38888889 0.27272727 0.0 0
0.61111111 0.27272727 -0.0 0
0.5 0.27272727 -0.0 0
-0.0 0.31818182 -0.0 0
0.05555556 0.31818182 -0.0 0
0.94444444 0.31818182 0.0 0
0.11111111 0.31818182 -0.0 0
0.88888889 0.31818182 0.0 0
0.16666667 0.31818182 0.0 0
0.83333333 0.31818182 -0.0 0
0.22222222 0.31818182 -0.0 0
0.77777778 0.31818182 -0.0 0
0.27777778 0.31818182 0.0 0
0.72222222 0.31818182 0.0 0
0.33333333 0.31818182 -0.0 0
0.66666667 0.31818182 -0.0 0
0.38888889 0.31818182 0.0 0
0.61111111 0.31818182 -0.0 0
0.44444444 0.31818182 -0.0 0
0.55555556 0.31818182 -0.0 0
0.5 0.31818182 0.0 0
0.05555556 0.36363636 -0.0 0
0.94444444 0.36363636 -0.0 0
0.16666667 0.36363636 0.0 0
0.83333333 0.36363636 -0.0 0
0.27777778 0.36363636 -0.0 0
0.72222222 0.36363636 -0.0 0
0.38888889 0.36363636 0.0 0
0.61111111 0.36363636 -0.0 0
0.5 0.36363636 -0.0 0
-0.0 0.40909091 -0.0 0
0.05555556 0.40909091 0.0 0
0.94444444 0.40909091 0.0 0
0.11111111 0.40909091 -0.0 0
0.88888889 0.40909091 0.0 0
0.16666667 0.40909091 0.0 0
0.83333333 0.40909091 -0.0 0
0.22222222 0.40909091 -0.0 0
0.77777778 0.40909091 -0.0 0
0.27777778 0.40909091 0.0 0
0.72222222 0.40909091 0.0 0
0.33333333 0.40909091 -0.0 0
0.66666667 0.40909091 -0.0 0
0.38888889 0.40909091 0.0 0
0.61111111 0.40909091 -0.0 0
0.44444444 0.40909091 0.0 0
0.55555556 0.40909091 -0.0 0
0.5 0.40909091 0.0 0
0.05555556 0.45454545 -0.0 0
0.94444444 0.45454545 -0.0 0
0.16666667 0.45454545 0.0 0
0.83333333 0.45454545 -0.0 0
0.27777778 0.45454545 -0.0 0
0.72222222 0.45454545 -0.0 0
0.38888889 0.45454545 0.0 0
0.61111111 0.45454545 -0.0 0
0.5 0.45454545 -0.0 0
0.0 0.5 -0.0 0
0.05555556 0.5 0.0 0
0.11111111 0.5 -0.0 0
0.16666667 0.5 0.0 0
0.22222222 0.5 -0.0 0
0.27777778 0.5 0.0 0
0.33333333 0.5 -0.0 0
0.38888889 0.5 -0.0 0
0.44444444 0.5 0.0 0
0.5 0.5 -0.0 0
0.0 0.0 0.05555556 0
0.05555556 0.0 0.05555556 0
0.11111111 0.0 0.05555556 0
0.16666667 0.0 0.05555556 0
0.22222222 0.0 0.05555556 0
0.27777778 0.0 0.05555556 0
0.33333333 0.0 0.05555556 0
0.38888889 0.0 0.05555556 0
0.44444444 0.0 0.05555556 0
0.5 0.0 0.05555556 0
0.55555556 0.0 0.05555556 0
0.61111111 0.0 0.05555556 0
0.66666667 0.0 0.05555556 0
0.72222222 0.0 0.05555556 0
0.77777778 0.0 0.05555556 0
0.83333333 0.0 0.05555556 0
0.88888889 0.0 0.05555556 0
0.94444444 0.0 0.05555556 0
0.0 0.04545455 0.05555556 0
-0.0 0.04545455 0.94444444 0
0.05555556 0.04545455 0.05555556 0
0.94444444 0.04545455 0.94444444 0
0.11111111 0.04545455 0.05555556 0
0.88888889 0.04545455 0.94444444 0
0.16666667 0.04545455 0.05555556 0
0.83333333 0.04545455 0.94444444 0
0.22222222 0.04545455 0.05555556 0
0.77777778 0.04545455 0.94444444 0
0.27777778 0.04545455 0.05555556 0
0.72222222 0.04545455 0.94444444 0
0.33333333 0.04545455 0.05555556 0
0.66666667 0.04545455 0.94444444 0
0.38888889 0.04545455 0.05555556 0
0.61111111 0.04545455 0.94444444 0
0.44444444 0.04545455 0.05555556 0
0.55555556 0.04545455 0.94444444 0
0.5 0.04545455 0.05555556 0
0.5 0.04545455 0.94444444 0
0.55555556 0.04545455 0.05555556 0
0.44444444 0.04545455 0.94444444 0
0.61111111 0.04545455 0.05555556 0
0.38888889 0.04545455 0.94444444 0
0.66666667 0.04545455 0.05555556 0
0.33333333 0.04545455 0.94444444 0
0.72222222 0.04545455 0.05555556 0
0.27777778 0.04545455 0.94444444 0
0.77777778 0.04545455 0.05555556 0
0.22222222 0.04545455 0.94444444 0
0.83333333 0.04545455 0.05555556 0
0.16666667 0.04545455 0.94444444 0
0.88888889 0.04545455 0.05555556 0
0.11111111 0.04545455 0.94444444 0
0.94444444 0.04545455 0.05555556 0
0.05555556 0.04545455 0.94444444 0
0.0 0.09090909 0.05555556 0
-0.0 0.09090909 0.94444444 0
0.05555556 0.09090909 0.05555556 0
0.94444444 0.09090909 0.94444444 0
0.11111111 0.09090909 0.05555556 0
0.88888889 0.09090909 0.94444444 0
0.16666667 0.09090909 0.05555556 0
0.83333333 0.09090909 0.94444444 0
0.22222222 0.09090909 0.05555556 0
0.77777778 0.09090909 0.94444444 0
0.27777778 0.09090909 0.05555556 0
0.72222222 0.09090909 0.94444444 0
0.33333333 0.09090909 0.05555556 0
0.66666667 0.09090909 0.94444444 0
0.38888889 0.09090909 0.05555556 0
0.61111111 0.09090909 0.94444444 0
0.44444444 0.09090909 0.05555556 0
0.55555556 0.09090909 0.94444444 0
0.5 0.09090909 0.05555556 0
0.5 0.09090909 0.94444444 0
0.55555556 0.09090909 0.05555556 0
0.44444444 0.09090909 0.94444444 0
0.61111111 0.09090909 0.05555556 0
0.38888889 0.09090909 0.94444444 0
0.66666667 0.09090909 0.05555556 0
0.33333333 0.09090909 0.94444444 0
0.72222222 0.09090909 0.05555556 0
0.27777778 0.09090909 0.94444444 0
0.77777778 0.09090909 0.05555556 0
0.22222222 0.09090909 0.94444444 0
0.83333333 0.09090909 0.05555556 0
0.16666667 0.09090909 0.94444444 0
0.88888889 0.09090909 0.05555556 0
0.11111111 0.09090909 0.94444444 0
0.94444444 0.09090909 0.05555556 0
0.05555556 0.09090909 0.94444444 0
0.0 0.13636364 0.05555556 0
-0.0 0.13636364 0.94444444 0
0.05555556 0.13636364 0.05555556 0
0.94444444 0.13636364 0.94444444 0
0.11111111 0.13636364 0.05555556 0
0.88888889 0.13636364 0.94444444 0
0.16666667 0.13636364 0.05555556 0
0.83333333 0.13636364 0.94444444 0
0.22222222 0.13636364 0.05555556 0
0.77777778 0.13636364 0.94444444 0
0.27777778 0.13636364 0.05555556 0
0.72222222 0.13636364 0.94444444 0
0.33333333 0.13636364 0.05555556 0
0.66666667 0.13636364 0.94444444 0
0.38888889 0.13636364 0.05555556 0
0.61111111 0.13636364 0.94444444 0
0.44444444 0.13636364 0.05555556 0
0.55555556 0.13636364 0.94444444 0
0.5 0.13636364 0.05555556 0
0.5 0.13636364 0.94444444 0
0.55555556 0.13636364 0.05555556 0
0.44444444 0.13636364 0.94444444 0
0.61111111 0.13636364 0.05555556 0
0.38888889 0.13636364 0.94444444 0
0.66666667 0.13636364 0.05555556 0
0.33333333 0.13636364 0.94444444 0
0.72222222 0.13636364 0.05555556 0
0.27777778 0.13636364 0.94444444 0
0.77777778 0.13636364 0.05555556 0
0.22222222 0.13636364 0.94444444 0
0.83333333 0.13636364 0.05555556 0
0.16666667 0.13636364 0.94444444 0
0.88888889 0.13636364 0.05555556 0
0.11111111 0.13636364 0.94444444 0
0.94444444 0.13636364 0.05555556 0
0.05555556 0.13636364 0.94444444 0
0.0 0.18181818 0.05555556 0
-0.0 0.18181818 0.94444444 0
0.05555556 0.18181818 0.05555556 0
0.94444444 0.18181818 0.94444444 0
0.11111111 0.18181818 0.05555556 0
0.88888889 0.18181818 0.94444444 0
0.16666667 0.18181818 0.05555556 0
0.83333333 0.18181818 0.94444444 0
0.22222222 0.18181818 0.05555556 0
0.77777778 0.18181818 0.94444444 0
0.27777778 0.18181818 0.05555556 0
0.72222222 0.18181818 0.94444444 0
0.33333333 0.18181818 0.05555556 0
0.66666667 0.18181818 0.94444444 0
0.38888889 0.18181818 0.05555556 0
0.61111111 0.18181818 0.94444444 0
0.44444444 0.18181818 0.05555556 0
0.55555556 0.18181818 0.94444444 0
0.5 0.18181818 0.05555556 0
0.5 0.18181818 0.94444444 0
0.55555556 0.18181818 0.05555556 0
0.44444444 0.18181818 0.94444444 0
0.61111111 0.18181818 0.05555556 0
0.38888889 0.18181818 0.94444444 0
0.66666667 0.18181818 0.05555556 0
0.33333333 0.18181818 0.94444444 0
0.72222222 0.18181818 0.05555556 0
0.27777778 0.18181818 0.94444444 0
0.77777778 0.18181818 0.05555556 0
0.22222222 0.18181818 0.94444444 0
0.83333333 0.18181818 0.05555556 0
0.16666667 0.18181818 0.94444444 0
0.88888889 0.18181818 0.05555556 0
0.11111111 0.18181818 0.94444444 0
0.94444444 0.18181818 0.05555556 0
0.05555556 0.18181818 0.94444444 0
0.0 0.22727273 0.05555556 0
-0.0 0.22727273 0.94444444 0
0.05555556 0.22727273 0.05555556 0
0.94444444 0.22727273 0.94444444 0
0.11111111 0.22727273 0.05555556 0
0.88888889 0.22727273 0.94444444 0
0.16666667 0.22727273 0.05555556 0
0.83333333 0.22727273 0.94444444 0
0.22222222 0.22727273 0.05555556 0
0.77777778 0.22727273 0.94444444 0
0.27777778 0.22727273 0.05555556 0
0.72222222 0.22727273 0.94444444 0
0.33333333 0.22727273 0.05555556 0
0.66666667 0.22727273 0.94444444 0
0.38888889 0.22727273 0.05555556 0
0.61111111 0.22727273 0.94444444 0
0.44444444 0.22727273 0.05555556 0
0.55555556 0.22727273 0.94444444 0
0.5 0.22727273 0.05555556 0
0.5 0.22727273 0.94444444 0
0.55555556 0.22727273 0.05555556 0
0.44444444 0.22727273 0.94444444 0
0.61111111 0.22727273 0.05555556 0
0.38888889 0.22727273 0.94444444 0
0.66666667 0.22727273 0.05555556 0
0.33333333 0.22727273 0.94444444 0
0.72222222 0.22727273 0.05555556 0
0.27777778 0.22727273 0.94444444 0
0.77777778 0.22727273 0.05555556 0
0.22222222 0.22727273 0.94444444 0
0.83333333 0.22727273 0.05555556 0
0.16666667 0.22727273 0.94444444 0
0.88888889 0.22727273 0.05555556 0
0.11111111 0.22727273 0.94444444 0
0.94444444 0.22727273 0.05555556 0
0.05555556 0.22727273 0.94444444 0
0.0 0.27272727 0.05555556 0
-0.0 0.27272727 0.94444444 0
0.05555556 0.27272727 0.05555556 0
0.94444444 0.27272727 0.94444444 0
0.11111111 0.27272727 0.05555556 0
0.88888889 0.27272727 0.94444444 0
0.16666667 0.27272727 0.05555556 0
0.83333333 0.27272727 0.94444444 0
0.22222222 0.27272727 0.05555556 0
0.77777778 0.27272727 0.94444444 0
0.27777778 0.27272727 0.05555556 0
0.72222222 0.27272727 0.94444444 0
0.33333333 0.27272727 0.05555556 0
0.66666667 0.27272727 0.94444444 0
0.38888889 0.27272727 0.05555556 0
0.61111111 0.27272727 0.94444444 0
0.44444444 0.27272727 0.05555556 0
0.55555556 0.27272727 0.94444444 0
0.5 0.27272727 0.05555556 0
0.5 0.27272727 0.94444444 0
0.55555556 0.27272727 0.05555556 0
0.44444444 0.27272727 0.94444444 0
0.61111111 0.27272727 0.05555556 0
0.38888889 0.27272727 0.94444444 0
0.66666667 0.27272727 0.05555556 0
0.33333333 0.27272727 0.94444444 0
0.72222222 0.27272727 0.05555556 0
0.27777778 0.27272727 0.94444444 0
0.77777778 0.27272727 0.05555556 0
0.22222222 0.27272727 0.94444444 0
0.83333333 0.27272727 0.05555556 0
0.16666667 0.27272727 0.94444444 0
0.88888889 0.27272727 0.05555556 0
0.11111111 0.27272727 0.94444444 0
0.94444444 0.27272727 0.05555556 0
0.05555556 0.27272727 0.94444444 0
0.0 0.31818182 0.05555556 0
-0.0 0.31818182 0.94444444 0
0.05555556 0.31818182 0.05555556 0
0.94444444 0.31818182 0.94444444 0
0.11111111 0.31818182 0.05555556 0
0.88888889 0.31818182 0.94444444 0
0.16666667 0.31818182 0.05555556 0
0.83333333 0.31818182 0.94444444 0
0.22222222 0.31818182 0.05555556 0
0.77777778 0.31818182 0.94444444 0
0.27777778 0.31818182 0.05555556 0
0.72222222 0.31818182 0.94444444 0
0.33333333 0.31818182 0.05555556 0
0.66666667 0.31818182 0.94444444 0
0.38888889 0.31818182 0.05555556 0
0.61111111 0.31818182 0.94444444 0
0.44444444 0.31818182 0.05555556 0
0.55555556 0.31818182 0.94444444 0
0.5 0.31818182 0.05555556 0
0.5 0.31818182 0.94444444 0
0.55555556 0.31818182 0.05555556 0
0.44444444 0.31818182 0.94444444 0
0.61111111 0.31818182 0.05555556 0
0.38888889 0.31818182 0.94444444 0
0.66666667 0.31818182 0.05555556 0
0.33333333 0.31818182 0.94444444 0
0.72222222 0.31818182 0.05555556 0
0.27777778 0.31818182 0.94444444 0
0.77777778 0.31818182 0.05555556 0
0.22222222 0.31818182 0.94444444 0
0.83333333 0.31818182 0.05555556 0
0.16666667 0.31818182 0.94444444 0
0.88888889 0.31818182 0.05555556 0
0.11111111 0.31818182 0.94444444 0
0.94444444 0.31818182 0.05555556 0
0.05555556 0.31818182 0.94444444 0
0.0 0.36363636 0.05555556 0
-0.0 0.36363636 0.94444444 0
0.05555556 0.36363636 0.05555556 0
0.94444444 0.36363636 0.94444444 0
0.11111111 0.36363636 0.05555556 0
0.88888889 0.36363636 0.94444444 0
0.16666667 0.36363636 0.05555556 0
0.83333333 0.36363636 0.94444444 0
0.22222222 0.36363636 0.05555556 0
0.77777778 0.36363636 0.94444444 0
0.27777778 0.36363636 0.05555556 0
0.72222222 0.36363636 0.94444444 0
0.33333333 0.36363636 0.05555556 0
0.66666667 0.36363636 0.94444444 0
0.38888889 0.36363636 0.05555556 0
0.61111111 0.36363636 0.94444444 0
0.44444444 0.36363636 0.05555556 0
0.55555556 0.36363636 0.94444444 0
0.5 0.36363636 0.05555556 0
0.5 0.36363636 0.94444444 0
0.55555556 0.36363636 0.05555556 0
0.44444444 0.36363636 0.94444444 0
0.61111111 0.36363636 0.05555556 0
0.38888889 0.36363636 0.94444444 0
0.66666667 0.36363636 0.05555556 0
0.33333333 0.36363636 0.94444444 0
0.72222222 0.36363636 0.05555556 0
0.27777778 0.36363636 0.94444444 0
0.77777778 0.36363636 0.05555556 0
0.22222222 0.36363636 0.94444444 0
0.83333333 0.36363636 0.05555556 0
0.16666667 0.36363636 0.94444444 0
0.88888889 0.36363636 0.05555556 0
0.11111111 0.36363636 0.94444444 0
0.94444444 0.36363636 0.05555556 0
0.05555556 0.36363636 0.94444444 0
0.0 0.40909091 0.05555556 0
-0.0 0.40909091 0.94444444 0
0.05555556 0.40909091 0.05555556 0
0.94444444 0.40909091 0.94444444 0
0.11111111 0.40909091 0.05555556 0
0.88888889 0.40909091 0.94444444 0
0.16666667 0.40909091 0.05555556 0
0.83333333 0.40909091 0.94444444 0
0.22222222 0.40909091 0.05555556 0
0.77777778 0.40909091 0.94444444 0
0.27777778 0.40909091 0.05555556 0
0.72222222 0.40909091 0.94444444 0
0.33333333 0.40909091 0.05555556 0
0.66666667 0.40909091 0.94444444 0
0.38888889 0.40909091 0.05555556 0
0.61111111 0.40909091 0.94444444 0
0.44444444 0.40909091 0.05555556 0
0.55555556 0.40909091 0.94444444 0
0.5 0.40909091 0.05555556 0
0.5 0.40909091 0.94444444 0
0.55555556 0.40909091 0.05555556 0
0.44444444 0.40909091 0.94444444 0
0.61111111 0.40909091 0.05555556 0
0.38888889 0.40909091 0.94444444 0
0.66666667 0.40909091 0.05555556 0