Vanadium(IV) oxide                      
   1.00000000000000     
     5.6780507172406249   -0.0000066579733041    0.0153191889449577
    -0.0000030921883897    4.5406441092947905   -0.0000369182957238
    -2.8519768384380910   -0.0000344092608063    4.5266029467021180
   V    O 
     4     8
Direct
  0.2461154547478413  0.9929683091742173  0.0140664979746827
  0.7530779528064535  0.0069669942319169  0.9862336943990559
  0.7530868650769368  0.4930445418027617  0.4862348395120675
  0.2461282335571493  0.5070217887938460  0.5140532592092323
  0.1023495430050870  0.2045717285695461  0.2058928669726134
  0.8982298921517020  0.7955476206463203  0.7940507955639386
  0.8982375486781694  0.7044350693149393  0.2940534243331161
  0.1023287398824245  0.2954464451231386  0.7058533414186697
  0.4003707002755227  0.6968381786039936  0.3035514499096466
  0.5998575274648640  0.3032904832008780  0.6962528044487384
  0.5998688220213266  0.1967255187811669  0.1962497063334447
  0.4003487503325254  0.8031433357572695  0.8035073269247982
 
  0.00000000E+00  0.00000000E+00  0.00000000E+00
  0.00000000E+00  0.00000000E+00  0.00000000E+00
  0.00000000E+00  0.00000000E+00  0.00000000E+00
  0.00000000E+00  0.00000000E+00  0.00000000E+00
  0.00000000E+00  0.00000000E+00  0.00000000E+00
  0.00000000E+00  0.00000000E+00  0.00000000E+00
  0.00000000E+00  0.00000000E+00  0.00000000E+00
  0.00000000E+00  0.00000000E+00  0.00000000E+00
  0.00000000E+00  0.00000000E+00  0.00000000E+00
  0.00000000E+00  0.00000000E+00  0.00000000E+00
  0.00000000E+00  0.00000000E+00  0.00000000E+00
  0.00000000E+00  0.00000000E+00  0.00000000E+00
